
     Program PWSCF v.7.5 starts on 10Jul2026 at 14:46:59 

     This program is part of the open-source Quantum ESPRESSO suite
     for quantum simulation of materials; please cite
         "P. Giannozzi et al., J. Phys.:Condens. Matter 21 395502 (2009);
         "P. Giannozzi et al., J. Phys.:Condens. Matter 29 465901 (2017);
         "P. Giannozzi et al., J. Chem. Phys. 152 154105 (2020);
          URL http://www.quantum-espresso.org", 
     in publications or presentations arising from this work. More details at
     http://www.quantum-espresso.org/quote

     Parallel version (MPI), running on     3 processors

     MPI processes distributed on     1 nodes
     21171 MiB available memory on the printing compute node when the environment starts

     Reading input from sgqd_relax_1.in

     Current dimensions of program PWSCF are:
     Max number of different atomic species (ntypx) = 10
     Max number of k-points (npk) =  40000
     Max angular momentum in pseudopotentials (lmaxx) =  4

     gamma-point specific algorithms are used

     R & G space division:  proc/nbgrp/npool/nimage =       3
     Subspace diagonalization in iterative solution of the eigenvalue problem:
     a serial algorithm will be used


     Parallelization info
     --------------------
     sticks:   dense  smooth     PW     G-vecs:    dense   smooth      PW
     Min       20723   10361   2594              1662103   587641   73469
     Max       20724   10364   2596              1662104   587644   73472
     Sum       62171   31089   7785              4986311  1762929  220411

     Using Slab Decomposition



     bravais-lattice index     =            0
     lattice parameter (alat)  =      46.7221  a.u.
     unit-cell volume          =   36909.9625 (a.u.)^3
     number of atoms/cell      =           46
     number of atomic types    =            3
     number of electrons       =       144.00
     number of Kohn-Sham states=           72
     kinetic-energy cutoff     =      50.0000  Ry
     charge density cutoff     =     400.0000  Ry
     scf convergence threshold =      1.0E-09
     mixing beta               =       0.3000
     number of iterations used =            8  plain     mixing
     energy convergence thresh.=      1.0E-04
     force convergence thresh. =      1.0E-03
     Exchange-correlation=  SLA  PW   PBX  PBC
                           (   1   4   3   4   0   0   0)
     nstep                     =           50


     celldm(1)=  46.722066  celldm(2)=   0.000000  celldm(3)=   0.000000
     celldm(4)=   0.000000  celldm(5)=   0.000000  celldm(6)=   0.000000

     crystal axes: (cart. coord. in units of alat)
               a(1) = (   1.000000   0.000000   0.000000 )  
               a(2) = (  -0.516583   0.894748   0.000000 )  
               a(3) = (   0.000000   0.000000   0.404461 )  

     reciprocal axes: (cart. coord. in units 2 pi/alat)
               b(1) = (  1.000000  0.577350 -0.000000 )  
               b(2) = (  0.000000  1.117633  0.000000 )  
               b(3) = (  0.000000 -0.000000  2.472425 )  


     PseudoPot. # 1 for C  read from file:
     /home/nihal/Desktop/pseudos/C.us.pbe.z_4.uspp.gbrv.v1.2.upf
     MD5 check sum: 9630a62af89b2189feb759fc7f027601
     Pseudo is Ultrasoft + core correction, Zval =  4.0
     
     Using radial grid of  721 points,  4 beta functions with: 
                l(1) =   0
                l(2) =   0
                l(3) =   1
                l(4) =   1
     Q(r) pseudized with 0 coefficients 


     PseudoPot. # 2 for H  read from file:
     /home/nihal/Desktop/pseudos/H.us.pbe.z_1.ld1.psl.v1.0.0-high.upf
     MD5 check sum: e76273ea4edb62c5e3246d46a5fe24e3
     Pseudo is Ultrasoft, Zval =  1.0
     Generated using &quot;atomic&quot; code by A. Dal Corso  v.6.3MaX
     Using radial grid of  929 points,  2 beta functions with: 
                l(1) =   0
                l(2) =   0
     Q(r) pseudized with 0 coefficients 


     PseudoPot. # 3 for S  read from file:
     /home/nihal/Desktop/pseudos/s_pbe_v1.4.uspp.F.UPF
     MD5 check sum: 88d86576ff6df21479756cfb9bdac1df
     Pseudo is Ultrasoft + core correction, Zval =  6.0
     Generated by new atomic code, or converted to UPF format
     Using radial grid of  907 points,  6 beta functions with: 
                l(1) =   0
                l(2) =   0
                l(3) =   1
                l(4) =   1
                l(5) =   2
                l(6) =   2
     Q(r) pseudized with  8 coefficients,  rinner =    1.300   1.300   1.300
                                                       1.300   1.300

     atomic species   valence    mass     pseudopotential
     C                 4.00    12.01100     C ( 1.00)
     H                 1.00     1.00800     H ( 1.00)
     S                 6.00    32.06500     S ( 1.00)

     No symmetry found


                                    s                        frac. trans.

      isym =  1     identity                                     

 cryst.   s( 1) = (     1          0          0      )
                  (     0          1          0      )
                  (     0          0          1      )

 cart.    s( 1) = (  1.0000000  0.0000000  0.0000000 )
                  (  0.0000000  1.0000000  0.0000000 )
                  (  0.0000000  0.0000000  1.0000000 )


   Cartesian axes

     site n.     atom                  positions (alat units)
         1        C      tau(   1) = (   0.0934624   0.3322441   0.1999176  )
         2        C      tau(   2) = (   0.0430248   0.4188982   0.1984420  )
         3        C      tau(   3) = (   0.1411976   0.3043566   0.1987536  )
         4        C      tau(   4) = (   0.1919039   0.3314737   0.2050261  )
         5        C      tau(   5) = (   0.0920299   0.3898531   0.2055917  )
         6        C      tau(   6) = (   0.1410973   0.4183168   0.2144463  )
         7        C      tau(   7) = (   0.0429040   0.4746365   0.1952610  )
         8        C      tau(   8) = (   0.0912439   0.5047506   0.2006928  )
         9        C      tau(   9) = (   0.2417042   0.3044232   0.2018358  )
        10        C      tau(  10) = (   0.2915208   0.3314767   0.2050268  )
        11        C      tau(  11) = (   0.1912365   0.3886734   0.2155609  )
        12        C      tau(  12) = (   0.2417154   0.4133262   0.2237637  )
        13        C      tau(  13) = (   0.1404247   0.4766816   0.2131194  )
        14        C      tau(  14) = (   0.1866391   0.5085031   0.2209929  )
        15        C      tau(  15) = (   0.0935507   0.5620930   0.1943707  )
        16        C      tau(  16) = (   0.1411133   0.5905655   0.1981545  )
        17        C      tau(  17) = (   0.3422176   0.3043542   0.1987535  )
        18        C      tau(  18) = (   0.3899564   0.3322468   0.1999181  )
        19        C      tau(  19) = (   0.2921710   0.3886744   0.2155621  )
        20        C      tau(  20) = (   0.3423227   0.4183187   0.2144456  )
        21        C      tau(  21) = (   0.2967797   0.5085016   0.2209916  )
        22        C      tau(  22) = (   0.1913290   0.5647864   0.2117246  )
        23        C      tau(  23) = (   0.2417100   0.5922403   0.2125673  )
        24        C      tau(  24) = (   0.3913879   0.3898511   0.2055916  )
        25        C      tau(  25) = (   0.4403910   0.4189097   0.1984417  )
        26        C      tau(  26) = (   0.3429882   0.4766821   0.2131195  )
        27        C      tau(  27) = (   0.3921782   0.5047495   0.2006912  )
        28        C      tau(  28) = (   0.2920844   0.5647865   0.2117246  )
        29        C      tau(  29) = (   0.3423002   0.5905719   0.1981539  )
        30        C      tau(  30) = (   0.4405053   0.4746281   0.1952619  )
        31        C      tau(  31) = (   0.3898703   0.5620934   0.1943696  )
        32        H      tau(  32) = (   0.0552461   0.3109246   0.1941870  )
        33        H      tau(  33) = (   0.0055946   0.3961684   0.1930692  )
        34        H      tau(  34) = (   0.1413760   0.2606861   0.1924837  )
        35        H      tau(  35) = (   0.0052049   0.4962774   0.1875847  )
        36        H      tau(  36) = (   0.0560433   0.5834643   0.1849943  )
        37        H      tau(  37) = (   0.1414792   0.6340324   0.1905495  )
        38        H      tau(  38) = (   0.3420423   0.2606877   0.1924839  )
        39        H      tau(  39) = (   0.4281717   0.3109251   0.1941871  )
        40        H      tau(  40) = (   0.4778250   0.3961673   0.1930684  )
        41        H      tau(  41) = (   0.3419371   0.6340302   0.1905497  )
        42        H      tau(  42) = (   0.4782158   0.4962808   0.1875824  )
        43        H      tau(  43) = (   0.4273714   0.5834642   0.1849942  )
        44        H      tau(  44) = (   0.2417091   0.2607062   0.1955075  )
        45        H      tau(  45) = (   0.2417080   0.6357252   0.2050989  )
        46        S      tau(  46) = (   0.2417082   0.4779933   0.2542167  )

   Crystallographic axes

     site n.     atom                  positions (cryst. coord.)
         1        C      tau(   1) = (  0.2852836  0.3713271  0.4942812  )
         2        C      tau(   2) = (  0.2848758  0.4681746  0.4906331  )
         3        C      tau(   3) = (  0.3169180  0.3401591  0.4914035  )
         4        C      tau(   4) = (  0.3832803  0.3704660  0.5069116  )
         5        C      tau(   5) = (  0.3171118  0.4357129  0.5083100  )
         6        C      tau(   6) = (  0.3826126  0.4675248  0.5302024  )
         7        C      tau(   7) = (  0.3169355  0.5304695  0.4827683  )
         8        C      tau(   8) = (  0.3826618  0.5641261  0.4961980  )
         9        C      tau(   9) = (  0.4174631  0.3402336  0.4990238  )
        10        C      tau(  10) = (  0.4828990  0.3704694  0.5069134  )
        11        C      tau(  11) = (  0.4156371  0.4343943  0.5329582  )
        12        C      tau(  12) = (  0.4803494  0.4619472  0.5532391  )
        13        C      tau(  13) = (  0.4156370  0.5327552  0.5269219  )
        14        C      tau(  14) = (  0.4802235  0.5683200  0.5463885  )
        15        C      tau(  15) = (  0.4180753  0.6282139  0.4805670  )
        16        C      tau(  16) = (  0.4820764  0.6600357  0.4899223  )
        17        C      tau(  17) = (  0.5179366  0.3401564  0.4914032  )
        18        C      tau(  18) = (  0.5817792  0.3713301  0.4942825  )
        19        C      tau(  19) = (  0.5165723  0.4343955  0.5329613  )
        20        C      tau(  20) = (  0.5838391  0.4675269  0.5302007  )
        21        C      tau(  21) = (  0.5903633  0.5683183  0.5463853  )
        22        C      tau(  22) = (  0.5174086  0.6312241  0.5234732  )
        23        C      tau(  23) = (  0.5836401  0.6619074  0.5255566  )
        24        C      tau(  24) = (  0.6164686  0.4357106  0.5083100  )
        25        C      tau(  25) = (  0.6822486  0.4681874  0.4906323  )
        26        C      tau(  26) = (  0.6182007  0.5327558  0.5269219  )
        27        C      tau(  27) = (  0.6835955  0.5641249  0.4961940  )
        28        C      tau(  28) = (  0.6181640  0.6312242  0.5234731  )
        29        C      tau(  29) = (  0.6832670  0.6600428  0.4899207  )
        30        C      tau(  30) = (  0.7145319  0.5304602  0.4827704  )
        31        C      tau(  31) = (  0.7143951  0.6282143  0.4805642  )
        32        H      tau(  32) = (  0.2347585  0.3474997  0.4801129  )
        33        H      tau(  33) = (  0.2343225  0.4427710  0.4773492  )
        34        H      tau(  34) = (  0.2918832  0.2913515  0.4759017  )
        35        H      tau(  35) = (  0.2917308  0.5546561  0.4637891  )
        36        H      tau(  36) = (  0.3929066  0.6520992  0.4573846  )
        37        H      tau(  37) = (  0.5075380  0.7086158  0.4711194  )
        38        H      tau(  38) = (  0.4925504  0.2913532  0.4759021  )
        39        H      tau(  39) = (  0.6076844  0.3475002  0.4801131  )
        40        H      tau(  40) = (  0.7065523  0.4427698  0.4773471  )
        41        H      tau(  41) = (  0.7079946  0.7086133  0.4711200  )
        42        H      tau(  42) = (  0.7647436  0.5546599  0.4637836  )
        43        H      tau(  43) = (  0.7642346  0.6520990  0.4573842  )
        44        H      tau(  44) = (  0.3922278  0.2913739  0.4833777  )
        45        H      tau(  45) = (  0.6087441  0.7105076  0.5070918  )
        46        S      tau(  46) = (  0.5176777  0.5342212  0.6285318  )

     number of k points=     1
                       cart. coord. in units 2pi/alat
        k(    1) = (   0.0000000   0.0000000   0.0000000), wk =   2.0000000

                       cryst. coord.
        k(    1) = (   0.0000000   0.0000000   0.0000000), wk =   2.0000000

     Dense  grid:  2493156 G-vectors     FFT dimensions: ( 300, 320, 125)

     Smooth grid:   881465 G-vectors     FFT dimensions: ( 216, 225,  90)

     Dynamical RAM for                 wfc:      40.35 MB

     Dynamical RAM for     wfc (w. buffer):      40.35 MB

     Dynamical RAM for           str. fact:      38.04 MB

     Dynamical RAM for           local pot:       0.00 MB

     Dynamical RAM for          nlocal pot:     164.76 MB

     Dynamical RAM for                qrad:       4.82 MB

     Dynamical RAM for          rho,v,vnew:     130.33 MB

     Dynamical RAM for               rhoin:      43.44 MB

     Dynamical RAM for            rho*nmix:     202.89 MB

     Dynamical RAM for           G-vectors:      49.79 MB

     Dynamical RAM for          h,s,v(r/c):      17.09 MB

     Dynamical RAM for          <psi|beta>:       0.16 MB

     Dynamical RAM for                 psi:     484.21 MB

     Dynamical RAM for                hpsi:     484.21 MB

     Dynamical RAM for                spsi:     484.21 MB

     Dynamical RAM for      wfcinit/wfcrot:      80.82 MB

     Dynamical RAM for           addusdens:    2751.74 MB

     Dynamical RAM for          addusforce:    3519.06 MB

     Estimated static dynamical RAM per process >     676.07 MB

     Estimated max dynamical RAM per process >       4.29 GB

     Estimated total dynamical RAM >      12.88 GB

     The initial density is read from file :
     /home/nihal/Desktop/OtptfGG/s_gqd_1.save/charge-density


     negative rho (up, down):  7.552E-03 0.000E+00
     Starting wfcs from file

     total cpu time spent up to now is        5.8 secs

     Self-consistent Calculation

     iteration #  1     ecut=    50.00 Ry     beta= 0.30
     Davidson diagonalization with overlap

---- Real-time Memory Report at c_bands before calling an iterative solver
          2720 MiB given to the printing process from OS
             0 MiB allocation reported by mallinfo(arena+hblkhd)
         19100 MiB available memory on the node where the printing process lives
------------------
     ethr =  1.00E-05,  avg # of iterations =  2.0

     Threshold (ethr) on eigenvalues was too large:
     Diagonalizing with lowered threshold

     Davidson diagonalization with overlap

---- Real-time Memory Report at c_bands before calling an iterative solver
          2999 MiB given to the printing process from OS
             0 MiB allocation reported by mallinfo(arena+hblkhd)
         18346 MiB available memory on the node where the printing process lives
------------------
     ethr =  8.15E-07,  avg # of iterations =  5.0

     negative rho (up, down):  7.551E-03 0.000E+00

     total cpu time spent up to now is       27.0 secs

     total energy              =    -396.38492933 Ry
     estimated scf accuracy    <       0.00155416 Ry

     iteration #  2     ecut=    50.00 Ry     beta= 0.30
     Davidson diagonalization with overlap

---- Real-time Memory Report at c_bands before calling an iterative solver
          3082 MiB given to the printing process from OS
             0 MiB allocation reported by mallinfo(arena+hblkhd)
         17919 MiB available memory on the node where the printing process lives
------------------
     ethr =  1.08E-06,  avg # of iterations =  5.0

     negative rho (up, down):  7.551E-03 0.000E+00

     total cpu time spent up to now is       39.6 secs

     total energy              =    -396.38501082 Ry
     estimated scf accuracy    <       0.00031965 Ry

     iteration #  3     ecut=    50.00 Ry     beta= 0.30
     Davidson diagonalization with overlap

---- Real-time Memory Report at c_bands before calling an iterative solver
          3091 MiB given to the printing process from OS
             0 MiB allocation reported by mallinfo(arena+hblkhd)
         18707 MiB available memory on the node where the printing process lives
------------------
     ethr =  2.22E-07,  avg # of iterations =  5.0

     negative rho (up, down):  7.551E-03 0.000E+00

     total cpu time spent up to now is       51.9 secs

     total energy              =    -396.38501267 Ry
     estimated scf accuracy    <       0.00007706 Ry

     iteration #  4     ecut=    50.00 Ry     beta= 0.30
     Davidson diagonalization with overlap

---- Real-time Memory Report at c_bands before calling an iterative solver
          3100 MiB given to the printing process from OS
             0 MiB allocation reported by mallinfo(arena+hblkhd)
         18746 MiB available memory on the node where the printing process lives
------------------
     ethr =  5.35E-08,  avg # of iterations =  4.0

     negative rho (up, down):  7.551E-03 0.000E+00

     total cpu time spent up to now is       65.2 secs

     total energy              =    -396.38502726 Ry
     estimated scf accuracy    <       0.00000462 Ry

     iteration #  5     ecut=    50.00 Ry     beta= 0.30
     Davidson diagonalization with overlap

---- Real-time Memory Report at c_bands before calling an iterative solver
          3109 MiB given to the printing process from OS
             0 MiB allocation reported by mallinfo(arena+hblkhd)
         18595 MiB available memory on the node where the printing process lives
------------------
     ethr =  3.21E-09,  avg # of iterations =  4.0

     negative rho (up, down):  7.551E-03 0.000E+00

     total cpu time spent up to now is       77.8 secs

     total energy              =    -396.38502765 Ry
     estimated scf accuracy    <       0.00000118 Ry

     iteration #  6     ecut=    50.00 Ry     beta= 0.30
     Davidson diagonalization with overlap

---- Real-time Memory Report at c_bands before calling an iterative solver
          3118 MiB given to the printing process from OS
             0 MiB allocation reported by mallinfo(arena+hblkhd)
         18731 MiB available memory on the node where the printing process lives
------------------
     ethr =  8.19E-10,  avg # of iterations =  2.0

     negative rho (up, down):  7.552E-03 0.000E+00

     total cpu time spent up to now is       90.2 secs

     total energy              =    -396.38502778 Ry
     estimated scf accuracy    <       0.00000017 Ry

     iteration #  7     ecut=    50.00 Ry     beta= 0.30
     Davidson diagonalization with overlap

---- Real-time Memory Report at c_bands before calling an iterative solver
          3127 MiB given to the printing process from OS
             0 MiB allocation reported by mallinfo(arena+hblkhd)
         18541 MiB available memory on the node where the printing process lives
------------------
     ethr =  1.15E-10,  avg # of iterations =  3.0

     negative rho (up, down):  7.552E-03 0.000E+00

     total cpu time spent up to now is      102.7 secs

     total energy              =    -396.38502781 Ry
     estimated scf accuracy    <       0.00000002 Ry

     iteration #  8     ecut=    50.00 Ry     beta= 0.30
     Davidson diagonalization with overlap

---- Real-time Memory Report at c_bands before calling an iterative solver
          3136 MiB given to the printing process from OS
             0 MiB allocation reported by mallinfo(arena+hblkhd)
         18539 MiB available memory on the node where the printing process lives
------------------
     ethr =  1.73E-11,  avg # of iterations =  3.0

     negative rho (up, down):  7.552E-03 0.000E+00

     total cpu time spent up to now is      115.2 secs

     total energy              =    -396.38502781 Ry
     estimated scf accuracy    <          5.6E-09 Ry

     iteration #  9     ecut=    50.00 Ry     beta= 0.30
     Davidson diagonalization with overlap

---- Real-time Memory Report at c_bands before calling an iterative solver
          3145 MiB given to the printing process from OS
             0 MiB allocation reported by mallinfo(arena+hblkhd)
         18474 MiB available memory on the node where the printing process lives
------------------
     ethr =  3.90E-12,  avg # of iterations =  4.0

     negative rho (up, down):  7.552E-03 0.000E+00

     total cpu time spent up to now is      128.3 secs

     total energy              =    -396.38502781 Ry
     estimated scf accuracy    <          1.2E-09 Ry

     iteration # 10     ecut=    50.00 Ry     beta= 0.30
     Davidson diagonalization with overlap

---- Real-time Memory Report at c_bands before calling an iterative solver
          3154 MiB given to the printing process from OS
             0 MiB allocation reported by mallinfo(arena+hblkhd)
         18455 MiB available memory on the node where the printing process lives
------------------
     ethr =  8.59E-13,  avg # of iterations =  4.0

     negative rho (up, down):  7.552E-03 0.000E+00

     total cpu time spent up to now is      140.9 secs

     End of self-consistent calculation

          k = 0.0000 0.0000 0.0000 (110206 PWs)   bands (ev):

   -22.6435 -21.5130 -21.4235 -20.8642 -20.5499 -20.0020 -19.5233 -19.4188
   -18.9299 -18.5064 -18.2691 -18.1469 -17.9698 -17.4964 -17.1039 -16.7149
   -15.7769 -15.3359 -15.3018 -15.2100 -15.0550 -14.6796 -13.7578 -13.6443
   -13.5647 -13.2590 -12.7201 -12.6603 -12.5805 -11.7771 -11.7314 -11.2715
   -11.2496 -11.2059 -10.9884 -10.7101 -10.3411 -10.2379 -10.1375 -10.0489
   -10.0403  -9.8689  -9.7793  -9.7461  -9.5177  -9.3088  -9.2934  -9.1071
    -8.9446  -8.9014  -8.7723  -8.5880  -8.3828  -8.2443  -8.2415  -8.0643
    -7.8799  -7.8165  -7.5947  -7.3377  -7.3137  -7.0414  -7.0084  -6.7751
    -6.6529  -5.9714  -5.9586  -5.6605  -5.2460  -4.7549  -4.4867  -3.3757

     occupation numbers 
     1.0000   1.0000   1.0000   1.0000   1.0000   1.0000   1.0000   1.0000
     1.0000   1.0000   1.0000   1.0000   1.0000   1.0000   1.0000   1.0000
     1.0000   1.0000   1.0000   1.0000   1.0000   1.0000   1.0000   1.0000
     1.0000   1.0000   1.0000   1.0000   1.0000   1.0000   1.0000   1.0000
     1.0000   1.0000   1.0000   1.0000   1.0000   1.0000   1.0000   1.0000
     1.0000   1.0000   1.0000   1.0000   1.0000   1.0000   1.0000   1.0000
     1.0000   1.0000   1.0000   1.0000   1.0000   1.0000   1.0000   1.0000
     1.0000   1.0000   1.0000   1.0000   1.0000   1.0000   1.0000   1.0000
     1.0000   1.0000   1.0000   1.0000   1.0000   1.0000   1.0000   1.0000

     highest occupied level (ev):    -3.3757

!    total energy              =    -396.38502781 Ry
     estimated scf accuracy    <          1.2E-10 Ry

     The total energy is the sum of the following terms:
     one-electron contribution =   -3229.20799938 Ry
     hartree contribution      =    1631.88366147 Ry
     xc contribution           =    -130.53291169 Ry
     ewald contribution        =    1331.47222179 Ry

     convergence has been achieved in  10 iterations

     negative rho (up, down):  7.552E-03 0.000E+00

     Forces acting on atoms (cartesian axes, Ry/au):

     atom    1 type  1   force =    -0.00019459   -0.00017246    0.00038100
     atom    2 type  1   force =     0.00040124    0.00036917   -0.00085001
     atom    3 type  1   force =    -0.00035266   -0.00097470    0.00131006
     atom    4 type  1   force =    -0.00034736    0.00004833    0.00042618
     atom    5 type  1   force =     0.00012389   -0.00048241   -0.00025429
     atom    6 type  1   force =    -0.00049368    0.00059401    0.00000754
     atom    7 type  1   force =     0.00043411   -0.00086369    0.00002762
     atom    8 type  1   force =    -0.00050359   -0.00045753   -0.00082962
     atom    9 type  1   force =     0.00046916    0.00125306   -0.00050922
     atom   10 type  1   force =    -0.00037987   -0.00024343    0.00038764
     atom   11 type  1   force =     0.00049918    0.00081007    0.00017987
     atom   12 type  1   force =    -0.00067779    0.00016838   -0.00044294
     atom   13 type  1   force =     0.00069260    0.00040099   -0.00051718
     atom   14 type  1   force =    -0.00079689    0.00008867    0.00077507
     atom   15 type  1   force =     0.00034629   -0.00027237    0.00004686
     atom   16 type  1   force =     0.00067757    0.00047434   -0.00006291
     atom   17 type  1   force =     0.00061052   -0.00068970    0.00134177
     atom   18 type  1   force =     0.00009974   -0.00038779    0.00035478
     atom   19 type  1   force =     0.00051455    0.00071281    0.00007718
     atom   20 type  1   force =     0.00023110    0.00043480    0.00004995
     atom   21 type  1   force =     0.00058394    0.00024895    0.00083403
     atom   22 type  1   force =     0.00027425   -0.00000163   -0.00086070
     atom   23 type  1   force =    -0.00018750   -0.00015267    0.00091124
     atom   24 type  1   force =    -0.00016755   -0.00021713   -0.00023540
     atom   25 type  1   force =    -0.00022490   -0.00072327   -0.00083516
     atom   26 type  1   force =    -0.00028633    0.00038575   -0.00060730
     atom   27 type  1   force =    -0.00003071   -0.00031088   -0.00075510
     atom   28 type  1   force =     0.00001880    0.00000833   -0.00090511
     atom   29 type  1   force =    -0.00041171   -0.00011398   -0.00001168
     atom   30 type  1   force =     0.00032002    0.00007848   -0.00015306
     atom   31 type  1   force =    -0.00078434   -0.00025136    0.00011128
     atom   32 type  2   force =    -0.00037618   -0.00005865    0.00036325
     atom   33 type  2   force =    -0.00008855    0.00014473   -0.00008977
     atom   34 type  2   force =     0.00022174   -0.00064625   -0.00054211
     atom   35 type  2   force =    -0.00007170    0.00049758   -0.00035876
     atom   36 type  2   force =     0.00051937   -0.00019785    0.00020536
     atom   37 type  2   force =    -0.00017114    0.00065600    0.00045507
     atom   38 type  2   force =    -0.00024219   -0.00075580   -0.00055689
     atom   39 type  2   force =     0.00037665   -0.00004476    0.00036396
     atom   40 type  2   force =    -0.00013784    0.00034823   -0.00005513
     atom   41 type  2   force =     0.00015873    0.00091745    0.00041171
     atom   42 type  2   force =    -0.00032942    0.00024216   -0.00027389
     atom   43 type  2   force =    -0.00035605   -0.00010929    0.00016684
     atom   44 type  2   force =    -0.00002232   -0.00019355   -0.00042792
     atom   45 type  2   force =     0.00001019   -0.00080635    0.00103619
     atom   46 type  3   force =     0.00005125    0.00024520   -0.00009029
     The non-local contrib.  to forces
     atom    1 type  1   force =     0.00099329    0.03317411   -0.00024925
     atom    2 type  1   force =     0.03214313   -0.00950847    0.00234238
     atom    3 type  1   force =     0.04695676    0.02030580    0.00616559
     atom    4 type  1   force =    -0.00581521    0.04961073    0.01517871
     atom    5 type  1   force =     0.02252021   -0.01165820    0.01177604
     atom    6 type  1   force =     0.05338741    0.01902204   -0.00561646
     atom    7 type  1   force =     0.02580012    0.01602039    0.00359397
     atom    8 type  1   force =     0.04714017   -0.01341225    0.01464522
     atom    9 type  1   force =     0.00029962    0.02758957   -0.00278606
     atom   10 type  1   force =     0.00520708    0.04941543    0.01515571
     atom   11 type  1   force =     0.05479285    0.03113815    0.01683509
     atom   12 type  1   force =    -0.00045918    0.24970937    0.09919115
     atom   13 type  1   force =     0.05505597    0.00559445    0.01648640
     atom   14 type  1   force =     0.22718224   -0.14587036    0.11031695
     atom   15 type  1   force =    -0.00131233   -0.03380918   -0.00633662
     atom   16 type  1   force =     0.03976691   -0.02659903    0.01595835
     atom   17 type  1   force =    -0.04676512    0.02054163    0.00620455
     atom   18 type  1   force =    -0.00105582    0.03302815   -0.00026119
     atom   19 type  1   force =    -0.05403656    0.03106476    0.01673949
     atom   20 type  1   force =    -0.05363367    0.01894066   -0.00558608
     atom   21 type  1   force =    -0.22733341   -0.14571764    0.11036201
     atom   22 type  1   force =    -0.04077693   -0.09522891    0.02289658
     atom   23 type  1   force =    -0.00015489   -0.07795143   -0.01212654
     atom   24 type  1   force =    -0.02255299   -0.01144032    0.01179454
     atom   25 type  1   force =    -0.03202032   -0.01033817    0.00234728
     atom   26 type  1   force =    -0.05477086    0.00559306    0.01641839
     atom   27 type  1   force =    -0.04751470   -0.01333059    0.01469570
     atom   28 type  1   force =     0.04098149   -0.09519515    0.02284980
     atom   29 type  1   force =    -0.03951229   -0.02704285    0.01599146
     atom   30 type  1   force =    -0.02521915    0.01673558    0.00345795
     atom   31 type  1   force =     0.00099123   -0.03379525   -0.00627987
     atom   32 type  2   force =     0.06708393    0.03787077    0.01009478
     atom   33 type  2   force =     0.06592906    0.03954510    0.00939686
     atom   34 type  2   force =     0.00023468    0.07687807    0.01102219
     atom   35 type  2   force =     0.06640308   -0.03765986    0.01344143
     atom   36 type  2   force =     0.06551460   -0.03779372    0.01642724
     atom   37 type  2   force =    -0.00047009   -0.07652803    0.01352091
     atom   38 type  2   force =    -0.00024145    0.07689892    0.01102568
     atom   39 type  2   force =    -0.06707930    0.03787372    0.01009500
     atom   40 type  2   force =    -0.06587405    0.03953641    0.00938883
     atom   41 type  2   force =     0.00046489   -0.07657330    0.01353009
     atom   42 type  2   force =    -0.06632408   -0.03762591    0.01342739
     atom   43 type  2   force =    -0.06553784   -0.03781222    0.01643454
     atom   44 type  2   force =    -0.00001066    0.07651887    0.01100289
     atom   45 type  2   force =     0.00000483   -0.07544965    0.01264868
     atom   46 type  3   force =    -0.00001224   -0.02629728   -0.51427462
     The ionic contribution  to forces
     atom    1 type  1   force =    -9.54763982   -8.53055889   -0.64049489
     atom    2 type  1   force =   -12.28260485   -3.23372343   -0.64357325
     atom    3 type  1   force =    -4.29649254  -11.94625688   -1.08529270
     atom    4 type  1   force =    -2.26174678   -8.56533186   -0.56502687
     atom    5 type  1   force =    -8.15568514   -4.26838871    0.28117855
     atom    6 type  1   force =    -4.56834683   -1.78443155    1.43506887
     atom    7 type  1   force =   -12.27836436    3.09532062   -1.25666478
     atom    8 type  1   force =    -8.16067904    4.17534472   -0.79178382
     atom    9 type  1   force =     0.01317056  -12.41657805   -0.98352303
     atom   10 type  1   force =     2.27652228   -8.57481585   -0.56503120
     atom   11 type  1   force =    -2.56637997   -3.71954242    0.81391636
     atom   12 type  1   force =    -0.00046798   -1.25908545    1.66115331
     atom   13 type  1   force =    -4.77367509    1.50321553    0.60869533
     atom   14 type  1   force =    -1.68805092    3.53500223    1.19240952
     atom   15 type  1   force =    -9.47227003    8.47831778   -1.61549278
     atom   16 type  1   force =    -4.29845235   11.89275683   -1.42790585
     atom   17 type  1   force =     4.31567725  -11.96458609   -1.08540355
     atom   18 type  1   force =     9.55740540   -8.55359097   -0.64048282
     atom   19 type  1   force =     2.57760263   -3.72760765    0.81347895
     atom   20 type  1   force =     4.57093260   -1.79869049    1.43489526
     atom   21 type  1   force =     1.67974213    3.52821807    1.19220420
     atom   22 type  1   force =    -1.98863000    8.83738008    0.11988255
     atom   23 type  1   force =    -0.01190087   12.34193344    0.47453886
     atom   24 type  1   force =     8.16117226   -4.28724518    0.28125479
     atom   25 type  1   force =    12.28439244   -3.25805786   -0.64343974
     atom   26 type  1   force =     4.77157349    1.49090192    0.60827021
     atom   27 type  1   force =     8.15437187    4.15803306   -0.79167769
     atom   28 type  1   force =     1.97338710    8.82779690    0.11981844
     atom   29 type  1   force =     4.28144723   11.87296226   -1.42773177
     atom   30 type  1   force =    12.27876111    3.07708230   -1.25714889
     atom   31 type  1   force =     9.46003049    8.45646894   -1.61513264
     atom   32 type  2   force =    -3.69605374   -2.81127321   -0.42914540
     atom   33 type  2   force =    -4.26364292   -1.70437480   -0.41367846
     atom   34 type  2   force =    -0.94603240   -4.54030678   -0.51749041
     atom   35 type  2   force =    -4.26490035    1.62767485   -0.61189170
     atom   36 type  2   force =    -3.65093949    2.79191494   -0.75951011
     atom   37 type  2   force =    -0.93418924    4.52309141   -0.65933031
     atom   38 type  2   force =     0.95257734   -4.54623745   -0.51754922
     atom   39 type  2   force =     3.69808503   -2.81827162   -0.42914913
     atom   40 type  2   force =     4.26294717   -1.70996836   -0.41355847
     atom   41 type  2   force =     0.92793913    4.51825983   -0.65948580
     atom   42 type  2   force =     4.26349958    1.62152755   -0.61169980
     atom   43 type  2   force =     3.64919301    2.78535263   -0.75962428
     atom   44 type  2   force =     0.00416278   -4.78152219   -0.50507146
     atom   45 type  2   force =    -0.00406698    4.78444903   -0.40150155
     atom   46 type  3   force =    -0.00338119    2.87744081   13.68772714
     The local contribution  to forces
     atom    1 type  1   force =     9.54492066    8.49760380    0.64123372
     atom    2 type  1   force =    12.25025128    3.24247201    0.64053118
     atom    3 type  1   force =     4.25041545   11.92384311    1.08039028
     atom    4 type  1   force =     2.26680347    8.51627064    0.55037836
     atom    5 type  1   force =     8.13330025    4.27922397   -0.29283755
     atom    6 type  1   force =     4.51518777    1.76639118   -1.42889494
     atom    7 type  1   force =    12.25230930   -3.11106716    1.25299873
     atom    8 type  1   force =     8.11344644   -4.16232137    0.77642512
     atom    9 type  1   force =    -0.01299305   12.38934569    0.98571140
     atom   10 type  1   force =    -2.28170698    8.52565303    0.55036624
     atom   11 type  1   force =     2.51187086    3.68939944   -0.83032605
     atom   12 type  1   force =     0.00023809    1.01318995   -1.75978610
     atom   13 type  1   force =     4.71943152   -1.50895005   -0.62545417
     atom   14 type  1   force =     1.46327161   -3.39079395   -1.30097224
     atom   15 type  1   force =     9.47251711   -8.44509001    1.62168822
     atom   16 type  1   force =     4.26050887  -11.86472660    1.41198927
     atom   17 type  1   force =    -4.26952942   11.94222470    1.08049386
     atom   18 type  1   force =    -9.55472200    8.52056214    0.64120714
     atom   19 type  1   force =    -2.52281920    3.69743819   -0.82989794
     atom   20 type  1   force =    -4.51779316    1.78056927   -1.42870920
     atom   21 type  1   force =    -1.45502774   -3.38399954   -1.30075268
     atom   22 type  1   force =     2.02941744   -8.74242784   -0.14331721
     atom   23 type  1   force =     0.01186555  -12.26383985   -0.46102240
     atom   24 type  1   force =    -8.13879682    4.29813181   -0.29291321
     atom   25 type  1   force =   -12.25198391    3.26652794    0.64040856
     atom   26 type  1   force =    -4.71720235   -1.49665033   -0.62505265
     atom   27 type  1   force =    -8.10730576   -4.14494426    0.77634425
     atom   28 type  1   force =    -2.01408275   -8.73287004   -0.14325134
     atom   29 type  1   force =    -4.24348786  -11.84508471    1.41183387
     atom   30 type  1   force =   -12.25252485   -3.09258884    1.25343588
     atom   31 type  1   force =    -9.46040278   -8.42323380    1.62133720
     atom   32 type  2   force =     3.62859314    2.77334339    0.41941345
     atom   33 type  2   force =     4.19762475    1.66497470    0.40419176
     atom   34 type  2   force =     0.94601987    4.46278234    0.50592557
     atom   35 type  2   force =     4.19842514   -1.58951681    0.59809159
     atom   36 type  2   force =     3.58594421   -2.75431882    0.74328831
     atom   37 type  2   force =     0.93448832   -4.44590734    0.64626478
     atom   38 type  2   force =    -0.95257859    4.46858302    0.50596615
     atom   39 type  2   force =    -3.63062906    2.78035286    0.41941772
     atom   40 type  2   force =    -4.19721077    1.67078047    0.40411456
     atom   41 type  2   force =    -0.92824554   -4.44076891    0.64636769
     atom   42 type  2   force =    -4.19750478   -1.58365895    0.59799866
     atom   43 type  2   force =    -3.58401127   -2.74764941    0.74335672
     atom   44 type  2   force =    -0.00417431    4.70481037    0.49364067
     atom   45 type  2   force =     0.00407239   -4.70980592    0.38988943
     atom   46 type  3   force =     0.00344322   -2.85237002  -13.19947294
     The core correction contribution to forces
     atom    1 type  1   force =     0.00153249   -0.00039387   -0.00011053
     atom    2 type  1   force =     0.00060862    0.00113044   -0.00015077
     atom    3 type  1   force =    -0.00123055    0.00113019    0.00004586
     atom    4 type  1   force =     0.00041284   -0.00050310   -0.00010339
     atom    5 type  1   force =    -0.00001057    0.00034081   -0.00037153
     atom    6 type  1   force =    -0.00072052   -0.00038458   -0.00054870
     atom    7 type  1   force =     0.00068822   -0.00113547    0.00010072
     atom    8 type  1   force =    -0.00041024   -0.00006819   -0.00011673
     atom    9 type  1   force =    -0.00000635    0.00089366    0.00008902
     atom   10 type  1   force =    -0.00040323   -0.00049964   -0.00010303
     atom   11 type  1   force =     0.00021743   -0.00018451   -0.00024401
     atom   12 type  1   force =     0.00000989   -0.00364663   -0.00100079
     atom   13 type  1   force =    -0.00011984    0.00054291   -0.00024583
     atom   14 type  1   force =    -0.00320134    0.00175327   -0.00098046
     atom   15 type  1   force =     0.00141219    0.00030945    0.00018788
     atom   16 type  1   force =    -0.00114328   -0.00095611   -0.00010513
     atom   17 type  1   force =     0.00122632    0.00112806    0.00004569
     atom   18 type  1   force =    -0.00153044   -0.00039033   -0.00011042
     atom   19 type  1   force =    -0.00023231   -0.00018251   -0.00024221
     atom   20 type  1   force =     0.00072484   -0.00038121   -0.00054878
     atom   21 type  1   force =     0.00320433    0.00175027   -0.00098104
     atom   22 type  1   force =     0.00026440    0.00027592   -0.00032644
     atom   23 type  1   force =     0.00000287   -0.00029616   -0.00047972
     atom   24 type  1   force =     0.00000884    0.00033739   -0.00037164
     atom   25 type  1   force =    -0.00061102    0.00114547   -0.00015114
     atom   26 type  1   force =     0.00011430    0.00054249   -0.00024456
     atom   27 type  1   force =     0.00041625   -0.00006946   -0.00011762
     atom   28 type  1   force =    -0.00026764    0.00027733   -0.00032601
     atom   29 type  1   force =     0.00113858   -0.00094812   -0.00010577
     atom   30 type  1   force =    -0.00069729   -0.00114844    0.00010313
     atom   31 type  1   force =    -0.00140419    0.00030881    0.00018672
     atom   32 type  2   force =     0.00000000    0.00000000    0.00000000
     atom   33 type  2   force =     0.00000000    0.00000000    0.00000000
     atom   34 type  2   force =     0.00000000    0.00000000    0.00000000
     atom   35 type  2   force =     0.00000000    0.00000000    0.00000000
     atom   36 type  2   force =     0.00000000    0.00000000    0.00000000
     atom   37 type  2   force =     0.00000000    0.00000000    0.00000000
     atom   38 type  2   force =     0.00000000    0.00000000    0.00000000
     atom   39 type  2   force =     0.00000000    0.00000000    0.00000000
     atom   40 type  2   force =     0.00000000    0.00000000    0.00000000
     atom   41 type  2   force =     0.00000000    0.00000000    0.00000000
     atom   42 type  2   force =     0.00000000    0.00000000    0.00000000
     atom   43 type  2   force =     0.00000000    0.00000000    0.00000000
     atom   44 type  2   force =     0.00000000    0.00000000    0.00000000
     atom   45 type  2   force =     0.00000000    0.00000000    0.00000000
     atom   46 type  3   force =     0.00000190    0.00147272    0.02592859
     The Hubbard contrib.    to forces
     atom    1 type  1   force =     0.00000000    0.00000000    0.00000000
     atom    2 type  1   force =     0.00000000    0.00000000    0.00000000
     atom    3 type  1   force =     0.00000000    0.00000000    0.00000000
     atom    4 type  1   force =     0.00000000    0.00000000    0.00000000
     atom    5 type  1   force =     0.00000000    0.00000000    0.00000000
     atom    6 type  1   force =     0.00000000    0.00000000    0.00000000
     atom    7 type  1   force =     0.00000000    0.00000000    0.00000000
     atom    8 type  1   force =     0.00000000    0.00000000    0.00000000
     atom    9 type  1   force =     0.00000000    0.00000000    0.00000000
     atom   10 type  1   force =     0.00000000    0.00000000    0.00000000
     atom   11 type  1   force =     0.00000000    0.00000000    0.00000000
     atom   12 type  1   force =     0.00000000    0.00000000    0.00000000
     atom   13 type  1   force =     0.00000000    0.00000000    0.00000000
     atom   14 type  1   force =     0.00000000    0.00000000    0.00000000
     atom   15 type  1   force =     0.00000000    0.00000000    0.00000000
     atom   16 type  1   force =     0.00000000    0.00000000    0.00000000
     atom   17 type  1   force =     0.00000000    0.00000000    0.00000000
     atom   18 type  1   force =     0.00000000    0.00000000    0.00000000
     atom   19 type  1   force =     0.00000000    0.00000000    0.00000000
     atom   20 type  1   force =     0.00000000    0.00000000    0.00000000
     atom   21 type  1   force =     0.00000000    0.00000000    0.00000000
     atom   22 type  1   force =     0.00000000    0.00000000    0.00000000
     atom   23 type  1   force =     0.00000000    0.00000000    0.00000000
     atom   24 type  1   force =     0.00000000    0.00000000    0.00000000
     atom   25 type  1   force =     0.00000000    0.00000000    0.00000000
     atom   26 type  1   force =     0.00000000    0.00000000    0.00000000
     atom   27 type  1   force =     0.00000000    0.00000000    0.00000000
     atom   28 type  1   force =     0.00000000    0.00000000    0.00000000
     atom   29 type  1   force =     0.00000000    0.00000000    0.00000000
     atom   30 type  1   force =     0.00000000    0.00000000    0.00000000
     atom   31 type  1   force =     0.00000000    0.00000000    0.00000000
     atom   32 type  2   force =     0.00000000    0.00000000    0.00000000
     atom   33 type  2   force =     0.00000000    0.00000000    0.00000000
     atom   34 type  2   force =     0.00000000    0.00000000    0.00000000
     atom   35 type  2   force =     0.00000000    0.00000000    0.00000000
     atom   36 type  2   force =     0.00000000    0.00000000    0.00000000
     atom   37 type  2   force =     0.00000000    0.00000000    0.00000000
     atom   38 type  2   force =     0.00000000    0.00000000    0.00000000
     atom   39 type  2   force =     0.00000000    0.00000000    0.00000000
     atom   40 type  2   force =     0.00000000    0.00000000    0.00000000
     atom   41 type  2   force =     0.00000000    0.00000000    0.00000000
     atom   42 type  2   force =     0.00000000    0.00000000    0.00000000
     atom   43 type  2   force =     0.00000000    0.00000000    0.00000000
     atom   44 type  2   force =     0.00000000    0.00000000    0.00000000
     atom   45 type  2   force =     0.00000000    0.00000000    0.00000000
     atom   46 type  3   force =     0.00000000    0.00000000    0.00000000
     The SCF correction term to forces
     atom    1 type  1   force =    -0.00000125    0.00000253    0.00000195
     atom    2 type  1   force =     0.00000302   -0.00000124    0.00000045
     atom    3 type  1   force =    -0.00000183    0.00000321    0.00000104
     atom    4 type  1   force =    -0.00000172    0.00000205   -0.00000062
     atom    5 type  1   force =    -0.00000091   -0.00000014    0.00000019
     atom    6 type  1   force =    -0.00000156   -0.00000294   -0.00000122
     atom    7 type  1   force =     0.00000079   -0.00000194   -0.00000102
     atom    8 type  1   force =    -0.00000098   -0.00000031    0.00000058
     atom    9 type  1   force =    -0.00000166    0.00000232   -0.00000056
     atom   10 type  1   force =     0.00000093    0.00000373   -0.00000009
     atom   11 type  1   force =    -0.00000203   -0.00000044   -0.00000152
     atom   12 type  1   force =     0.00000135    0.00000128   -0.00000052
     atom   13 type  1   force =    -0.00000001   -0.00000171    0.00000110
     atom   14 type  1   force =     0.00000148   -0.00000238    0.00000130
     atom   15 type  1   force =    -0.00000070   -0.00000026    0.00000016
     atom   16 type  1   force =    -0.00000264   -0.00000061    0.00000045
     atom   17 type  1   force =     0.00000144    0.00000213    0.00000121
     atom   18 type  1   force =     0.00000256    0.00000335    0.00000207
     atom   19 type  1   force =    -0.00000005    0.00000016   -0.00000112
     atom   20 type  1   force =     0.00000045   -0.00000329   -0.00000127
     atom   21 type  1   force =    -0.00000141   -0.00000207    0.00000154
     atom   22 type  1   force =    -0.00000070   -0.00000074    0.00000382
     atom   23 type  1   force =    -0.00000021    0.00000147    0.00000105
     atom   24 type  1   force =     0.00000112   -0.00000068    0.00000011
     atom   25 type  1   force =    -0.00000213   -0.00000051   -0.00000012
     atom   26 type  1   force =    -0.00000096   -0.00000125    0.00000132
     atom   27 type  1   force =     0.00000159    0.00000051    0.00000026
     atom   28 type  1   force =     0.00000056   -0.00000057    0.00000400
     atom   29 type  1   force =     0.00000258   -0.00000042    0.00000053
     atom   30 type  1   force =     0.00000016   -0.00000198   -0.00000114
     atom   31 type  1   force =     0.00000086    0.00000007   -0.00000014
     atom   32 type  2   force =     0.00000043    0.00000054    0.00000041
     atom   33 type  2   force =     0.00000052   -0.00000014    0.00000006
     atom   34 type  2   force =    -0.00000045    0.00000025    0.00000053
     atom   35 type  2   force =     0.00000038   -0.00000045   -0.00000009
     atom   36 type  2   force =     0.00000001   -0.00000010   -0.00000008
     atom   37 type  2   force =    -0.00000017    0.00000009   -0.00000031
     atom   38 type  2   force =     0.00000046   -0.00000016    0.00000051
     atom   39 type  2   force =    -0.00000006    0.00000042    0.00000038
     atom   40 type  2   force =    -0.00000024   -0.00000015   -0.00000004
     atom   41 type  2   force =     0.00000020   -0.00000002   -0.00000027
     atom   42 type  2   force =    -0.00000019   -0.00000039   -0.00000013
     atom   43 type  2   force =     0.00000000   -0.00000016   -0.00000013
     atom   44 type  2   force =    -0.00000017   -0.00000045   -0.00000001
     atom   45 type  2   force =    -0.00000008    0.00000034   -0.00000036
     atom   46 type  3   force =    -0.00000049   -0.00000089    0.00000154

     Total force =     0.005739     Total SCF correction =     0.000016

     BFGS Geometry Optimization
     Energy error            =      3.3E-05 Ry
     Gradient error          =      1.3E-03 Ry/Bohr

     number of scf cycles    =   1
     number of bfgs steps    =   0

     energy             new  =    -396.3850278124 Ry

     new trust radius        =       0.0016705354 bohr
     new conv_thr            =       0.0000000010 Ry


ATOMIC_POSITIONS (angstrom)
C                2.3106847907        8.2143964057        4.9430141127
C                1.0639682812       10.3571412095        4.9058814322
C                3.4908191296        7.5244735312        4.9147286023
C                4.7444972562        8.1954647832        5.0693416746
C                2.2754372275        9.6385721157        5.0829658258
C                3.4882633031       10.3428849459        5.3020277730
C                1.0610001143       11.7345748273        4.8276972973
C                2.2556710542       12.4793397521        4.9615410203
C                5.9762049760        7.5273002536        4.9899688078
C                7.2074327329        8.1953849618        5.0693386308
C                4.7284431251        9.6100870539        5.3296770474
C                5.9758728568       10.2192710299        5.5321563774
C                3.4722631730       11.7858072889        5.2689453799
C                4.6140905128       12.5724058035        5.4642952216
C                2.3131551909       13.8971862195        4.8056946000
C                3.4892781869       14.6015413551        4.8991897826
C                8.4613982056        7.5245660636        4.9147421558
C                9.6414326930        8.2143491892        4.9430126697
C                7.2239819264        9.6100622901        5.3296536208
C                8.4637959245       10.3428473744        5.3020333002
C                7.3379657985       12.5724541313        5.4642943022
C                4.7306125659       13.9639203316        5.2342762973
C                5.9759994584       14.6426169782        5.2560485963
C                9.6766858585        9.6386625125        5.0829750665
C               10.8882194207       10.3568462751        4.9058807043
C                8.4799746174       11.7858129764        5.2688979555
C                9.6962972980       12.4793906995        4.9615406849
C                7.2215778055       13.9639275577        5.2342524702
C                8.4628988429       14.6013878076        4.8992010151
C               10.8913326890       11.7348669496        4.8276234742
C                9.6388363672       13.8972061311        4.8057010070
H                1.3657200253        7.6873469653        4.8013210170
H                0.1382756390        9.7950444747        4.7734443616
H                3.4955326193        6.4449276291        4.7587296653
H                0.1286502058       12.2703507938        4.6377015462
H                1.3859029078       14.4256149750        4.5739542051
H                3.4978770585       15.6763253933        4.7114349252
H                8.4566118678        6.4449080978        4.7587260596
H               10.5864252143        7.6873660155        4.8013239578
H               11.8137937563        9.7951254463        4.7734420467
H                8.4542227937       15.6764080056        4.7114175303
H               11.8233533108       12.2702997726        4.6376906637
H               10.5662493170       14.4256571717        4.5739307072
H                5.9760639361        6.4456630596        4.8335500599
H                5.9760538284       15.7174031108        5.0714663045
S                5.9760805774       11.8181562544        6.2852700444



     Writing config-only to output data dir /home/nihal/Desktop/OtptfGG/s_gqd_1.save/ :
     XML data file
     NEW-OLD atomic charge density approx. for the potential

     negative rho (up, down):  7.552E-03 0.000E+00

     total cpu time spent up to now is      151.7 secs

     Self-consistent Calculation

     iteration #  1     ecut=    50.00 Ry     beta= 0.30
     Davidson diagonalization with overlap

---- Real-time Memory Report at c_bands before calling an iterative solver
          3185 MiB given to the printing process from OS
             0 MiB allocation reported by mallinfo(arena+hblkhd)
         19151 MiB available memory on the node where the printing process lives
------------------
     ethr =  1.00E-06,  avg # of iterations =  2.0

     Threshold (ethr) on eigenvalues was too large:
     Diagonalizing with lowered threshold

     Davidson diagonalization with overlap

---- Real-time Memory Report at c_bands before calling an iterative solver
          3185 MiB given to the printing process from OS
             0 MiB allocation reported by mallinfo(arena+hblkhd)
         19003 MiB available memory on the node where the printing process lives
------------------
     ethr =  2.30E-09,  avg # of iterations =  5.0

     negative rho (up, down):  7.552E-03 0.000E+00

     total cpu time spent up to now is      174.7 secs

     total energy              =    -396.38505003 Ry
     estimated scf accuracy    <       0.00000444 Ry

     iteration #  2     ecut=    50.00 Ry     beta= 0.30
     Davidson diagonalization with overlap

---- Real-time Memory Report at c_bands before calling an iterative solver
          3185 MiB given to the printing process from OS
             0 MiB allocation reported by mallinfo(arena+hblkhd)
         18704 MiB available memory on the node where the printing process lives
------------------
     ethr =  3.08E-09,  avg # of iterations =  4.0

     negative rho (up, down):  7.552E-03 0.000E+00

     total cpu time spent up to now is      186.9 secs

     total energy              =    -396.38504992 Ry
     estimated scf accuracy    <       0.00000118 Ry

     iteration #  3     ecut=    50.00 Ry     beta= 0.30
     Davidson diagonalization with overlap

---- Real-time Memory Report at c_bands before calling an iterative solver
          3185 MiB given to the printing process from OS
             0 MiB allocation reported by mallinfo(arena+hblkhd)
         18686 MiB available memory on the node where the printing process lives
------------------
     ethr =  8.23E-10,  avg # of iterations =  2.0

     negative rho (up, down):  7.552E-03 0.000E+00

     total cpu time spent up to now is      199.0 secs

     total energy              =    -396.38504998 Ry
     estimated scf accuracy    <       0.00000021 Ry

     iteration #  4     ecut=    50.00 Ry     beta= 0.30
     Davidson diagonalization with overlap

---- Real-time Memory Report at c_bands before calling an iterative solver
          3185 MiB given to the printing process from OS
             0 MiB allocation reported by mallinfo(arena+hblkhd)
         18519 MiB available memory on the node where the printing process lives
------------------
     ethr =  1.46E-10,  avg # of iterations =  4.0

     negative rho (up, down):  7.552E-03 0.000E+00

     total cpu time spent up to now is      211.6 secs

     total energy              =    -396.38505001 Ry
     estimated scf accuracy    <       0.00000003 Ry

     iteration #  5     ecut=    50.00 Ry     beta= 0.30
     Davidson diagonalization with overlap

---- Real-time Memory Report at c_bands before calling an iterative solver
          3185 MiB given to the printing process from OS
             0 MiB allocation reported by mallinfo(arena+hblkhd)
         18490 MiB available memory on the node where the printing process lives
------------------
     ethr =  2.23E-11,  avg # of iterations =  4.0

     negative rho (up, down):  7.552E-03 0.000E+00

     total cpu time spent up to now is      224.4 secs

     total energy              =    -396.38505001 Ry
     estimated scf accuracy    <          7.0E-09 Ry

     iteration #  6     ecut=    50.00 Ry     beta= 0.30
     Davidson diagonalization with overlap

---- Real-time Memory Report at c_bands before calling an iterative solver
          3185 MiB given to the printing process from OS
             0 MiB allocation reported by mallinfo(arena+hblkhd)
         18459 MiB available memory on the node where the printing process lives
------------------
     ethr =  4.83E-12,  avg # of iterations =  5.0

     negative rho (up, down):  7.552E-03 0.000E+00

     total cpu time spent up to now is      236.8 secs

     total energy              =    -396.38505002 Ry
     estimated scf accuracy    <          2.1E-09 Ry

     iteration #  7     ecut=    50.00 Ry     beta= 0.30
     Davidson diagonalization with overlap

---- Real-time Memory Report at c_bands before calling an iterative solver
          3185 MiB given to the printing process from OS
             0 MiB allocation reported by mallinfo(arena+hblkhd)
         18575 MiB available memory on the node where the printing process lives
------------------
     ethr =  1.45E-12,  avg # of iterations =  6.0

     negative rho (up, down):  7.552E-03 0.000E+00

     total cpu time spent up to now is      249.2 secs

     End of self-consistent calculation

          k = 0.0000 0.0000 0.0000 (110206 PWs)   bands (ev):

   -22.6439 -21.5135 -21.4230 -20.8645 -20.5496 -20.0024 -19.5237 -19.4191
   -18.9305 -18.5066 -18.2703 -18.1467 -17.9699 -17.4968 -17.1040 -16.7153
   -15.7779 -15.3361 -15.3020 -15.2088 -15.0558 -14.6797 -13.7575 -13.6443
   -13.5641 -13.2585 -12.7199 -12.6606 -12.5814 -11.7778 -11.7321 -11.2721
   -11.2497 -11.2053 -10.9878 -10.7091 -10.3411 -10.2379 -10.1388 -10.0491
   -10.0407  -9.8685  -9.7788  -9.7459  -9.5182  -9.3091  -9.2923  -9.1061
    -8.9450  -8.9010  -8.7725  -8.5885  -8.3827  -8.2444  -8.2414  -8.0652
    -7.8792  -7.8161  -7.5951  -7.3376  -7.3140  -7.0420  -7.0079  -6.7752
    -6.6533  -5.9712  -5.9590  -5.6607  -5.2466  -4.7545  -4.4873  -3.3762

     occupation numbers 
     1.0000   1.0000   1.0000   1.0000   1.0000   1.0000   1.0000   1.0000
     1.0000   1.0000   1.0000   1.0000   1.0000   1.0000   1.0000   1.0000
     1.0000   1.0000   1.0000   1.0000   1.0000   1.0000   1.0000   1.0000
     1.0000   1.0000   1.0000   1.0000   1.0000   1.0000   1.0000   1.0000
     1.0000   1.0000   1.0000   1.0000   1.0000   1.0000   1.0000   1.0000
     1.0000   1.0000   1.0000   1.0000   1.0000   1.0000   1.0000   1.0000
     1.0000   1.0000   1.0000   1.0000   1.0000   1.0000   1.0000   1.0000
     1.0000   1.0000   1.0000   1.0000   1.0000   1.0000   1.0000   1.0000
     1.0000   1.0000   1.0000   1.0000   1.0000   1.0000   1.0000   1.0000

     highest occupied level (ev):    -3.3762

!    total energy              =    -396.38505002 Ry
     estimated scf accuracy    <          2.5E-10 Ry

     The total energy is the sum of the following terms:
     one-electron contribution =   -3229.21919516 Ry
     hartree contribution      =    1631.88851549 Ry
     xc contribution           =    -130.53264554 Ry
     ewald contribution        =    1331.47827519 Ry

     convergence has been achieved in   7 iterations

     negative rho (up, down):  7.552E-03 0.000E+00

     Forces acting on atoms (cartesian axes, Ry/au):

     atom    1 type  1   force =    -0.00013244   -0.00056593    0.00040289
     atom    2 type  1   force =     0.00005797   -0.00103845   -0.00068159
     atom    3 type  1   force =    -0.00007782   -0.00037797    0.00112966
     atom    4 type  1   force =    -0.00019878    0.00032984    0.00041574
     atom    5 type  1   force =     0.00012797    0.00013628   -0.00020787
     atom    6 type  1   force =     0.00023319    0.00008117    0.00002201
     atom    7 type  1   force =    -0.00060808    0.00052915   -0.00041414
     atom    8 type  1   force =     0.00067848    0.00006486   -0.00058383
     atom    9 type  1   force =    -0.00055720   -0.00042563   -0.00054933
     atom   10 type  1   force =     0.00106253    0.00067119    0.00045703
     atom   11 type  1   force =    -0.00094986   -0.00002638   -0.00005390
     atom   12 type  1   force =     0.00079625    0.00055981   -0.00026435
     atom   13 type  1   force =    -0.00066600   -0.00002902   -0.00060609
     atom   14 type  1   force =     0.00010039    0.00065402    0.00059453
     atom   15 type  1   force =     0.00049830   -0.00013603   -0.00002999
     atom   16 type  1   force =     0.00003573    0.00006566   -0.00014962
     atom   17 type  1   force =    -0.00022116   -0.00071002    0.00109549
     atom   18 type  1   force =     0.00023205   -0.00031786    0.00043600
     atom   19 type  1   force =    -0.00023725    0.00009020    0.00006249
     atom   20 type  1   force =     0.00005880    0.00027571   -0.00002254
     atom   21 type  1   force =     0.00015559    0.00046280    0.00052469
     atom   22 type  1   force =    -0.00000307   -0.00013949   -0.00043790
     atom   23 type  1   force =     0.00022078   -0.00050964    0.00067871
     atom   24 type  1   force =    -0.00005037   -0.00017447   -0.00023405
     atom   25 type  1   force =    -0.00029541    0.00026928   -0.00070194
     atom   26 type  1   force =     0.00018751   -0.00001973   -0.00049298
     atom   27 type  1   force =    -0.00007079   -0.00007543   -0.00067205
     atom   28 type  1   force =    -0.00034758   -0.00014556   -0.00038163
     atom   29 type  1   force =    -0.00029083    0.00071058   -0.00021822
     atom   30 type  1   force =    -0.00024195   -0.00061694   -0.00020452
     atom   31 type  1   force =    -0.00005341   -0.00015365   -0.00009699
     atom   32 type  2   force =    -0.00032910   -0.00000676    0.00035623
     atom   33 type  2   force =     0.00014571    0.00030157   -0.00009163
     atom   34 type  2   force =     0.00018829   -0.00067217   -0.00043070
     atom   35 type  2   force =     0.00051560    0.00002866   -0.00019950
     atom   36 type  2   force =     0.00041839   -0.00010773    0.00020044
     atom   37 type  2   force =    -0.00013056    0.00057442    0.00045456
     atom   38 type  2   force =    -0.00016649   -0.00054476   -0.00041315
     atom   39 type  2   force =     0.00032781   -0.00002009    0.00035628
     atom   40 type  2   force =     0.00013109    0.00005867   -0.00013186
     atom   41 type  2   force =     0.00014257    0.00028615    0.00050463
     atom   42 type  2   force =    -0.00005153    0.00032869   -0.00029749
     atom   43 type  2   force =    -0.00059045   -0.00020118    0.00024138
     atom   44 type  2   force =     0.00002673    0.00070189   -0.00030675
     atom   45 type  2   force =    -0.00001167   -0.00034722    0.00095442
     atom   46 type  3   force =    -0.00005989    0.00018151   -0.00001256
     The non-local contrib.  to forces
     atom    1 type  1   force =     0.00105953    0.03294197    0.00002486
     atom    2 type  1   force =     0.03183806   -0.01041732    0.00261650
     atom    3 type  1   force =     0.04722862    0.02087447    0.00591864
     atom    4 type  1   force =    -0.00550930    0.04978143    0.01515591
     atom    5 type  1   force =     0.02250949   -0.01112191    0.01179202
     atom    6 type  1   force =     0.05406927    0.01857539   -0.00575678
     atom    7 type  1   force =     0.02514718    0.01720010    0.00307670
     atom    8 type  1   force =     0.04810796   -0.01299551    0.01488989
     atom    9 type  1   force =    -0.00034999    0.02617689   -0.00272921
     atom   10 type  1   force =     0.00624647    0.05000289    0.01517724
     atom   11 type  1   force =     0.05392601    0.03046123    0.01662400
     atom   12 type  1   force =     0.00054040    0.25000572    0.09943826
     atom   13 type  1   force =     0.05409133    0.00519748    0.01665728
     atom   14 type  1   force =     0.22806735   -0.14564023    0.10928586
     atom   15 type  1   force =    -0.00120676   -0.03362691   -0.00647984
     atom   16 type  1   force =     0.03913581   -0.02692718    0.01579154
     atom   17 type  1   force =    -0.04744155    0.02057684    0.00587642
     atom   18 type  1   force =    -0.00097699    0.03309339    0.00003853
     atom   19 type  1   force =    -0.05480162    0.03054709    0.01673083
     atom   20 type  1   force =    -0.05378588    0.01867017   -0.00578461
     atom   21 type  1   force =    -0.22787503   -0.14581821    0.10923700
     atom   22 type  1   force =    -0.04104423   -0.09533332    0.02354130
     atom   23 type  1   force =     0.00018394   -0.07834092   -0.01314283
     atom   24 type  1   force =    -0.02245000   -0.01138646    0.01176788
     atom   25 type  1   force =    -0.03199760   -0.00942992    0.00260382
     atom   26 type  1   force =    -0.05441583    0.00518992    0.01673984
     atom   27 type  1   force =    -0.04767562   -0.01306320    0.01482691
     atom   28 type  1   force =     0.04081859   -0.09536810    0.02359769
     atom   29 type  1   force =    -0.03937828   -0.02642276    0.01573987
     atom   30 type  1   force =    -0.02579260    0.01633413    0.00323565
     atom   31 type  1   force =     0.00154589   -0.03362505   -0.00654205
     atom   32 type  2   force =     0.06707660    0.03786102    0.01009224
     atom   33 type  2   force =     0.06588940    0.03952078    0.00935755
     atom   34 type  2   force =     0.00020841    0.07687630    0.01110265
     atom   35 type  2   force =     0.06626535   -0.03763311    0.01342730
     atom   36 type  2   force =     0.06552592   -0.03780297    0.01642725
     atom   37 type  2   force =    -0.00043375   -0.07652423    0.01349812
     atom   38 type  2   force =    -0.00020119    0.07685098    0.01109889
     atom   39 type  2   force =    -0.06708100    0.03785661    0.01009221
     atom   40 type  2   force =    -0.06595537    0.03953196    0.00936801
     atom   41 type  2   force =     0.00044006   -0.07647317    0.01348812
     atom   42 type  2   force =    -0.06635645   -0.03767106    0.01344607
     atom   43 type  2   force =    -0.06550023   -0.03778322    0.01642027
     atom   44 type  2   force =     0.00001299    0.07635958    0.01096859
     atom   45 type  2   force =    -0.00000517   -0.07552204    0.01265824
     atom   46 type  3   force =     0.00000605   -0.02606066   -0.51427617
     The ionic contribution  to forces
     atom    1 type  1   force =    -9.54606696   -8.53150575   -0.64032220
     atom    2 type  1   force =   -12.28205269   -3.23890838   -0.64794608
     atom    3 type  1   force =    -4.29567656  -11.94720537   -1.07712195
     atom    4 type  1   force =    -2.26457853   -8.56495865   -0.56301687
     atom    5 type  1   force =    -8.15481502   -4.26963937    0.28007538
     atom    6 type  1   force =    -4.56877007   -1.78707823    1.43627399
     atom    7 type  1   force =   -12.28243338    3.09831379   -1.25471244
     atom    8 type  1   force =    -8.15923059    4.17649851   -0.79585905
     atom    9 type  1   force =     0.00870160  -12.41692883   -0.98974973
     atom   10 type  1   force =     2.28308230   -8.57229805   -0.56282771
     atom   11 type  1   force =    -2.57218259   -3.72276584    0.81286287
     atom   12 type  1   force =     0.00571611   -1.25863682    1.65798297
     atom   13 type  1   force =    -4.77631779    1.50326226    0.60308379
     atom   14 type  1   force =    -1.68718153    3.53932569    1.20191503
     atom   15 type  1   force =    -9.46948101    8.47879003   -1.61375999
     atom   16 type  1   force =    -4.30155735   11.89358013   -1.42841935
     atom   17 type  1   force =     4.31252534  -11.96521456   -1.07696658
     atom   18 type  1   force =     9.55724932   -8.55257539   -0.64022785
     atom   19 type  1   force =     2.57614830   -3.72895253    0.81359312
     atom   20 type  1   force =     4.57288151   -1.79854387    1.43641453
     atom   21 type  1   force =     1.67968933    3.53021588    1.20183176
     atom   22 type  1   force =    -1.98785418    8.83378066    0.11184352
     atom   23 type  1   force =    -0.01034536   12.34121595    0.48213993
     atom   24 type  1   force =     8.15900724   -4.28804406    0.28018348
     atom   25 type  1   force =    12.28284031   -3.25573276   -0.64796325
     atom   26 type  1   force =     4.77180504    1.48936544    0.60324021
     atom   27 type  1   force =     8.15627347    4.15634099   -0.79617779
     atom   28 type  1   force =     1.96989312    8.82631021    0.11176256
     atom   29 type  1   force =     4.28273514   11.87727283   -1.42848461
     atom   30 type  1   force =    12.27941531    3.07423177   -1.25436122
     atom   31 type  1   force =     9.46132698    8.45675955   -1.61412549
     atom   32 type  2   force =    -3.69594136   -2.81093423   -0.42901198
     atom   33 type  2   force =    -4.26314311   -1.70400797   -0.41286850
     atom   34 type  2   force =    -0.94523876   -4.53982646   -0.51940057
     atom   35 type  2   force =    -4.26274929    1.62738064   -0.61165227
     atom   36 type  2   force =    -3.65116427    2.79227574   -0.75929573
     atom   37 type  2   force =    -0.93501559    4.52290723   -0.65848649
     atom   38 type  2   force =     0.95159212   -4.54502548   -0.51934510
     atom   39 type  2   force =     3.69814438   -2.81783130   -0.42900850
     atom   40 type  2   force =     4.26437529   -1.70984537   -0.41304937
     atom   41 type  2   force =     0.92848043    4.51654569   -0.65832056
     atom   42 type  2   force =     4.26401619    1.62225984   -0.61196769
     atom   43 type  2   force =     3.64866304    2.78506144   -0.75918781
     atom   44 type  2   force =     0.00370022   -4.77863389   -0.50483569
     atom   45 type  2   force =    -0.00384586    4.78617354   -0.40105714
     atom   46 type  3   force =    -0.00262024    2.87722533   13.68632642
     The local contribution  to forces
     atom    1 type  1   force =     9.54334681    8.49838625    0.64081168
     atom    2 type  1   force =    12.24966285    3.24713278    0.64479805
     atom    3 type  1   force =     4.24960070   11.92482826    1.07229168
     atom    4 type  1   force =     2.26947171    8.51601204    0.54838221
     atom    5 type  1   force =     8.13244054    4.28055868   -0.29170450
     atom    6 type  1   force =     4.51565931    1.76895710   -1.42994754
     atom    7 type  1   force =    12.25597206   -3.11383010    1.25111516
     atom    8 type  1   force =     8.11222405   -4.16336413    0.78050125
     atom    9 type  1   force =    -0.00891908   12.38940972    0.99183796
     atom   10 type  1   force =    -2.28783656    8.52347568    0.54821296
     atom   11 type  1   force =     2.51706765    3.69244595   -0.82930074
     atom   12 type  1   force =    -0.00544730    1.01283885   -1.75668139
     atom   13 type  1   force =     4.72166154   -1.50903559   -0.62010541
     atom   14 type  1   force =     1.46242881   -3.39477464   -1.30962738
     atom   15 type  1   force =     9.46978279   -8.44560473    1.62002158
     atom   16 type  1   force =     4.26358463  -11.86563459    1.41258020
     atom   17 type  1   force =    -4.26654432   11.94279933    1.07214378
     atom   18 type  1   force =    -9.55450544    8.51955720    0.64073689
     atom   19 type  1   force =    -2.52136312    3.69866815   -0.83001873
     atom   20 type  1   force =    -4.51975666    1.78052877   -1.43010436
     atom   21 type  1   force =    -1.45486894   -3.38568374   -1.30956539
     atom   22 type  1   force =     2.02862462   -8.73887095   -0.13549475
     atom   23 type  1   force =     0.01038371  -12.26309423   -0.46784180
     atom   24 type  1   force =    -8.13661995    4.29891460   -0.29181416
     atom   25 type  1   force =   -12.25052843    3.26430222    0.64480676
     atom   26 type  1   force =    -4.71731353   -1.49512466   -0.62022873
     atom   27 type  1   force =    -8.10908119   -4.14328373    0.78079393
     atom   28 type  1   force =    -2.01079601   -8.73137417   -0.13541256
     atom   29 type  1   force =    -4.24478091  -11.84917697    1.41262791
     atom   30 type  1   force =   -12.25317022   -3.09004683    1.25081775
     atom   31 type  1   force =    -9.46151183   -8.42359691    1.62038111
     atom   32 type  2   force =     3.62853627    2.77306707    0.41927600
     atom   33 type  2   force =     4.19739970    1.66478865    0.40341944
     atom   34 type  2   force =     0.94521858    4.46227918    0.50786731
     atom   35 type  2   force =     4.19699923   -1.58971849    0.59802513
     atom   36 type  2   force =     3.58605711   -2.75458035    0.74306877
     atom   37 type  2   force =     0.93531800   -4.44580830    0.64544275
     atom   38 type  2   force =    -0.95155776    4.46763052    0.50783301
     atom   39 type  2   force =    -3.63073605    2.77995531    0.41927259
     atom   40 type  2   force =    -4.19828891    1.67037242    0.40354953
     atom   41 type  2   force =    -0.92877751   -4.43978543    0.64533681
     atom   42 type  2   force =    -4.19771152   -1.58426024    0.59822392
     atom   43 type  2   force =    -3.58375282   -2.74747932    0.74300867
     atom   44 type  2   force =    -0.00368682    4.70297669    0.49356087
     atom   45 type  2   force =     0.00383899   -4.71099705    0.38935288
     atom   46 type  3   force =     0.00255574   -2.85244485  -13.19799108
     The core correction contribution to forces
     atom    1 type  1   force =     0.00152998   -0.00038922   -0.00011179
     atom    2 type  1   force =     0.00061042    0.00114931   -0.00015006
     atom    3 type  1   force =    -0.00123207    0.00112592    0.00004139
     atom    4 type  1   force =     0.00041450   -0.00050613   -0.00010448
     atom    5 type  1   force =    -0.00000956    0.00033559   -0.00037122
     atom    6 type  1   force =    -0.00072669   -0.00037763   -0.00054828
     atom    7 type  1   force =     0.00070333   -0.00115389    0.00010423
     atom    8 type  1   force =    -0.00042285   -0.00007160   -0.00011722
     atom    9 type  1   force =     0.00000850    0.00091374    0.00009378
     atom   10 type  1   force =    -0.00042641   -0.00051055   -0.00010494
     atom   11 type  1   force =     0.00023678   -0.00017315   -0.00024000
     atom   12 type  1   force =    -0.00001126   -0.00365083   -0.00100230
     atom   13 type  1   force =    -0.00010396    0.00054641   -0.00024238
     atom   14 type  1   force =    -0.00321401    0.00174381   -0.00097873
     atom   15 type  1   force =     0.00140374    0.00030707    0.00018694
     atom   16 type  1   force =    -0.00113212   -0.00095389   -0.00010255
     atom   17 type  1   force =     0.00123827    0.00112891    0.00004155
     atom   18 type  1   force =    -0.00153361   -0.00039320   -0.00011217
     atom   19 type  1   force =    -0.00022055   -0.00017533   -0.00024229
     atom   20 type  1   force =     0.00072165   -0.00038096   -0.00054822
     atom   21 type  1   force =     0.00321069    0.00174720   -0.00097795
     atom   22 type  1   force =     0.00026595    0.00028313   -0.00032674
     atom   23 type  1   force =    -0.00000308   -0.00029034   -0.00047698
     atom   24 type  1   force =     0.00001123    0.00033892   -0.00037120
     atom   25 type  1   force =    -0.00060818    0.00113099   -0.00014979
     atom   26 type  1   force =     0.00011003    0.00054760   -0.00024384
     atom   27 type  1   force =     0.00041559   -0.00006978   -0.00011607
     atom   28 type  1   force =    -0.00026078    0.00028122   -0.00032716
     atom   29 type  1   force =     0.00113574   -0.00096222   -0.00010176
     atom   30 type  1   force =    -0.00069229   -0.00113788    0.00010168
     atom   31 type  1   force =    -0.00141081    0.00030752    0.00018829
     atom   32 type  2   force =     0.00000000    0.00000000    0.00000000
     atom   33 type  2   force =     0.00000000    0.00000000    0.00000000
     atom   34 type  2   force =     0.00000000    0.00000000    0.00000000
     atom   35 type  2   force =     0.00000000    0.00000000    0.00000000
     atom   36 type  2   force =     0.00000000    0.00000000    0.00000000
     atom   37 type  2   force =     0.00000000    0.00000000    0.00000000
     atom   38 type  2   force =     0.00000000    0.00000000    0.00000000
     atom   39 type  2   force =     0.00000000    0.00000000    0.00000000
     atom   40 type  2   force =     0.00000000    0.00000000    0.00000000
     atom   41 type  2   force =     0.00000000    0.00000000    0.00000000
     atom   42 type  2   force =     0.00000000    0.00000000    0.00000000
     atom   43 type  2   force =     0.00000000    0.00000000    0.00000000
     atom   44 type  2   force =     0.00000000    0.00000000    0.00000000
     atom   45 type  2   force =     0.00000000    0.00000000    0.00000000
     atom   46 type  3   force =     0.00000092    0.00145966    0.02593109
     The Hubbard contrib.    to forces
     atom    1 type  1   force =     0.00000000    0.00000000    0.00000000
     atom    2 type  1   force =     0.00000000    0.00000000    0.00000000
     atom    3 type  1   force =     0.00000000    0.00000000    0.00000000
     atom    4 type  1   force =     0.00000000    0.00000000    0.00000000
     atom    5 type  1   force =     0.00000000    0.00000000    0.00000000
     atom    6 type  1   force =     0.00000000    0.00000000    0.00000000
     atom    7 type  1   force =     0.00000000    0.00000000    0.00000000
     atom    8 type  1   force =     0.00000000    0.00000000    0.00000000
     atom    9 type  1   force =     0.00000000    0.00000000    0.00000000
     atom   10 type  1   force =     0.00000000    0.00000000    0.00000000
     atom   11 type  1   force =     0.00000000    0.00000000    0.00000000
     atom   12 type  1   force =     0.00000000    0.00000000    0.00000000
     atom   13 type  1   force =     0.00000000    0.00000000    0.00000000
     atom   14 type  1   force =     0.00000000    0.00000000    0.00000000
     atom   15 type  1   force =     0.00000000    0.00000000    0.00000000
     atom   16 type  1   force =     0.00000000    0.00000000    0.00000000
     atom   17 type  1   force =     0.00000000    0.00000000    0.00000000
     atom   18 type  1   force =     0.00000000    0.00000000    0.00000000
     atom   19 type  1   force =     0.00000000    0.00000000    0.00000000
     atom   20 type  1   force =     0.00000000    0.00000000    0.00000000
     atom   21 type  1   force =     0.00000000    0.00000000    0.00000000
     atom   22 type  1   force =     0.00000000    0.00000000    0.00000000
     atom   23 type  1   force =     0.00000000    0.00000000    0.00000000
     atom   24 type  1   force =     0.00000000    0.00000000    0.00000000
     atom   25 type  1   force =     0.00000000    0.00000000    0.00000000
     atom   26 type  1   force =     0.00000000    0.00000000    0.00000000
     atom   27 type  1   force =     0.00000000    0.00000000    0.00000000
     atom   28 type  1   force =     0.00000000    0.00000000    0.00000000
     atom   29 type  1   force =     0.00000000    0.00000000    0.00000000
     atom   30 type  1   force =     0.00000000    0.00000000    0.00000000
     atom   31 type  1   force =     0.00000000    0.00000000    0.00000000
     atom   32 type  2   force =     0.00000000    0.00000000    0.00000000
     atom   33 type  2   force =     0.00000000    0.00000000    0.00000000
     atom   34 type  2   force =     0.00000000    0.00000000    0.00000000
     atom   35 type  2   force =     0.00000000    0.00000000    0.00000000
     atom   36 type  2   force =     0.00000000    0.00000000    0.00000000
     atom   37 type  2   force =     0.00000000    0.00000000    0.00000000
     atom   38 type  2   force =     0.00000000    0.00000000    0.00000000
     atom   39 type  2   force =     0.00000000    0.00000000    0.00000000
     atom   40 type  2   force =     0.00000000    0.00000000    0.00000000
     atom   41 type  2   force =     0.00000000    0.00000000    0.00000000
     atom   42 type  2   force =     0.00000000    0.00000000    0.00000000
     atom   43 type  2   force =     0.00000000    0.00000000    0.00000000
     atom   44 type  2   force =     0.00000000    0.00000000    0.00000000
     atom   45 type  2   force =     0.00000000    0.00000000    0.00000000
     atom   46 type  3   force =     0.00000000    0.00000000    0.00000000
     The SCF correction term to forces
     atom    1 type  1   force =    -0.00000193    0.00000111    0.00000035
     atom    2 type  1   force =    -0.00000080    0.00000545   -0.00000000
     atom    3 type  1   force =     0.00000138   -0.00000096   -0.00000011
     atom    4 type  1   force =     0.00000272    0.00000145   -0.00000104
     atom    5 type  1   force =     0.00000239    0.00000359    0.00000044
     atom    6 type  1   force =     0.00000125    0.00000483    0.00000061
     atom    7 type  1   force =     0.00000260   -0.00000045    0.00000220
     atom    8 type  1   force =    -0.00000020   -0.00000211    0.00000128
     atom    9 type  1   force =     0.00000165    0.00000314   -0.00000214
     atom   10 type  1   force =    -0.00000339    0.00000151   -0.00000051
     atom   11 type  1   force =     0.00000216    0.00000573   -0.00000004
     atom   12 type  1   force =    -0.00000182    0.00000318   -0.00000189
     atom   13 type  1   force =     0.00000275    0.00000072    0.00000063
     atom   14 type  1   force =    -0.00000034   -0.00000033   -0.00000027
     atom   15 type  1   force =    -0.00000059   -0.00000120    0.00000132
     atom   16 type  1   force =     0.00000464    0.00000149    0.00000054
     atom   17 type  1   force =     0.00000098   -0.00000024    0.00000031
     atom   18 type  1   force =    -0.00000135    0.00000043    0.00000060
     atom   19 type  1   force =    -0.00000038    0.00000312   -0.00000044
     atom   20 type  1   force =    -0.00000193    0.00000190    0.00000011
     atom   21 type  1   force =    -0.00000059    0.00000197   -0.00000073
     atom   22 type  1   force =     0.00000464    0.00000128   -0.00000124
     atom   23 type  1   force =     0.00000145    0.00000019    0.00000038
     atom   24 type  1   force =     0.00000099    0.00000281   -0.00000006
     atom   25 type  1   force =    -0.00000164   -0.00000096    0.00000052
     atom   26 type  1   force =     0.00000168    0.00000225   -0.00000046
     atom   27 type  1   force =    -0.00000317    0.00000058    0.00000097
     atom   28 type  1   force =    -0.00000263    0.00000557   -0.00000216
     atom   29 type  1   force =    -0.00000264   -0.00000001    0.00000035
     atom   30 type  1   force =    -0.00000227    0.00000217    0.00000161
     atom   31 type  1   force =    -0.00000375    0.00000153    0.00000115
     atom   32 type  2   force =    -0.00000073   -0.00000033   -0.00000003
     atom   33 type  2   force =    -0.00000040    0.00000040   -0.00000012
     atom   34 type  2   force =    -0.00000005   -0.00000089   -0.00000009
     atom   35 type  2   force =     0.00000019   -0.00000009    0.00000034
     atom   36 type  2   force =    -0.00000049    0.00000015    0.00000015
     atom   37 type  2   force =     0.00000066    0.00000001    0.00000017
     atom   38 type  2   force =     0.00000022   -0.00000049    0.00000004
     atom   39 type  2   force =     0.00000036   -0.00000041   -0.00000002
     atom   40 type  2   force =    -0.00000004   -0.00000004   -0.00000003
     atom   41 type  2   force =    -0.00000052   -0.00000065    0.00000025
     atom   42 type  2   force =     0.00000012    0.00000045    0.00000021
     atom   43 type  2   force =    -0.00000057    0.00000021    0.00000024
     atom   44 type  2   force =     0.00000021   -0.00000020   -0.00000052
     atom   45 type  2   force =     0.00000025   -0.00000137    0.00000043
     atom   46 type  3   force =    -0.00000248    0.00000233   -0.00000282

     Total force =     0.004916     Total SCF correction =     0.000021
     Energy error            =      2.2E-05 Ry
     Gradient error          =      1.1E-03 Ry/Bohr

     number of scf cycles    =   2
     number of bfgs steps    =   1

     energy             old  =    -396.3850278124 Ry
     energy             new  =    -396.3850500183 Ry

     CASE: energy            _new < energy            _old

     new trust radius        =       0.0036751778 bohr
     new conv_thr            =            1.0E-11 Ry


ATOMIC_POSITIONS (angstrom)
C                2.3104611932        8.2138801620        4.9435537087
C                1.0642767735       10.3566508298        4.9048316507
C                3.4905289287        7.5235559631        4.9164027012
C                4.7441248139        8.1957308918        5.0699204962
C                2.2756105378        9.6383472830        5.0826489582
C                3.4880996789       10.3433383533        5.3020484051
C                1.0608581974       11.7343745009        4.8274220238
C                2.2558165896       12.4790808527        4.9605741496
C                5.9761224999        7.5278334622        4.9892399170
C                7.2079330599        8.1956987018        5.0699210487
C                4.7281021964        9.6106081770        5.3297586893
C                5.9759858245       10.2197802150        5.5316737453
C                3.4722524326       11.7860539247        5.2681709391
C                4.6136306607       12.5729286727        5.4652333245
C                2.3137393145       13.8969082485        4.8057045615
C                3.4897550558       14.6019040163        4.8990417614
C                8.4616482241        7.5236029503        4.9164131524
C                9.6416637124        8.2138653580        4.9435582771
C                7.2241565812        9.6106012686        5.3297493730
C                8.4639916247       10.3433326431        5.3020506004
C                7.3384652664       12.5729482218        5.4652221710
C                4.7307931479       13.9638203324        5.2333921972
C                5.9760310714       14.6421538356        5.2571371390
C                9.6765384864        9.6383940933        5.0826522239
C               10.8878600615       10.3565552390        4.9048263836
C                8.4799167761       11.7860560505        5.2681436639
C                9.6962266297       12.4791300366        4.9605609151
C                7.2213438494       13.9638298920        5.2333786783
C                8.4624182413       14.6018157420        4.8990384828
C               10.8913743770       11.7344817616        4.8273764426
C                9.6382758131       13.8969296626        4.8057063845
H                1.3652359605        7.6873030872        4.8018157003
H                0.1383199555        9.7953547757        4.7733195573
H                3.4958139114        6.4440203142        4.7580629811
H                0.1289680510       12.2707027021        4.6373209984
H                1.3865457065       14.4254067375        4.5742331930
H                3.4976704249       15.6771698849        4.7120605218
H                8.4563324095        6.4440181256        4.7580619709
H               10.5869086689        7.6873219428        4.8018191546
H               11.8137948587        9.7953991114        4.7733118049
H                8.4544296752       15.6772223106        4.7120497428
H               11.8230972418       12.2706942322        4.6372971891
H               10.5655933339       14.4254416802        4.5742130575
H                5.9760680177        6.4460318123        4.8330473727
H                5.9760523442       15.7166195393        5.0728336265
S                5.9760722604       11.8184483722        6.2852009642



     Writing config-only to output data dir /home/nihal/Desktop/OtptfGG/s_gqd_1.save/ :
     XML data file
     NEW-OLD atomic charge density approx. for the potential

     negative rho (up, down):  7.552E-03 0.000E+00

     total cpu time spent up to now is      260.1 secs

     Self-consistent Calculation

     iteration #  1     ecut=    50.00 Ry     beta= 0.30
     Davidson diagonalization with overlap

---- Real-time Memory Report at c_bands before calling an iterative solver
          3185 MiB given to the printing process from OS
             0 MiB allocation reported by mallinfo(arena+hblkhd)
         18929 MiB available memory on the node where the printing process lives
------------------
     ethr =  1.00E-06,  avg # of iterations =  2.0

     Threshold (ethr) on eigenvalues was too large:
     Diagonalizing with lowered threshold

     Davidson diagonalization with overlap

---- Real-time Memory Report at c_bands before calling an iterative solver
          3185 MiB given to the printing process from OS
             0 MiB allocation reported by mallinfo(arena+hblkhd)
         19121 MiB available memory on the node where the printing process lives
------------------
     ethr =  6.45E-09,  avg # of iterations =  4.0

     negative rho (up, down):  7.551E-03 0.000E+00

     total cpu time spent up to now is      283.2 secs

     total energy              =    -396.38508153 Ry
     estimated scf accuracy    <       0.00001291 Ry

     iteration #  2     ecut=    50.00 Ry     beta= 0.30
     Davidson diagonalization with overlap

---- Real-time Memory Report at c_bands before calling an iterative solver
          3185 MiB given to the printing process from OS
             0 MiB allocation reported by mallinfo(arena+hblkhd)
         18566 MiB available memory on the node where the printing process lives
------------------
     ethr =  8.96E-09,  avg # of iterations =  4.0

     negative rho (up, down):  7.551E-03 0.000E+00

     total cpu time spent up to now is      295.2 secs

     total energy              =    -396.38508164 Ry
     estimated scf accuracy    <       0.00000348 Ry

     iteration #  3     ecut=    50.00 Ry     beta= 0.30
     Davidson diagonalization with overlap

---- Real-time Memory Report at c_bands before calling an iterative solver
          3185 MiB given to the printing process from OS
             0 MiB allocation reported by mallinfo(arena+hblkhd)
         18537 MiB available memory on the node where the printing process lives
------------------
     ethr =  2.42E-09,  avg # of iterations =  4.0

     negative rho (up, down):  7.552E-03 0.000E+00

     total cpu time spent up to now is      307.4 secs

     total energy              =    -396.38508180 Ry
     estimated scf accuracy    <       0.00000088 Ry

     iteration #  4     ecut=    50.00 Ry     beta= 0.30
     Davidson diagonalization with overlap

---- Real-time Memory Report at c_bands before calling an iterative solver
          3185 MiB given to the printing process from OS
             0 MiB allocation reported by mallinfo(arena+hblkhd)
         18512 MiB available memory on the node where the printing process lives
------------------
     ethr =  6.11E-10,  avg # of iterations =  3.0

     negative rho (up, down):  7.552E-03 0.000E+00

     total cpu time spent up to now is      319.9 secs

     total energy              =    -396.38508190 Ry
     estimated scf accuracy    <       0.00000013 Ry

     iteration #  5     ecut=    50.00 Ry     beta= 0.30
     Davidson diagonalization with overlap

---- Real-time Memory Report at c_bands before calling an iterative solver
          3185 MiB given to the printing process from OS
             0 MiB allocation reported by mallinfo(arena+hblkhd)
         18580 MiB available memory on the node where the printing process lives
------------------
     ethr =  9.22E-11,  avg # of iterations =  3.0

     negative rho (up, down):  7.552E-03 0.000E+00

     total cpu time spent up to now is      332.1 secs

     total energy              =    -396.38508192 Ry
     estimated scf accuracy    <       0.00000003 Ry

     iteration #  6     ecut=    50.00 Ry     beta= 0.30
     Davidson diagonalization with overlap

---- Real-time Memory Report at c_bands before calling an iterative solver
          3185 MiB given to the printing process from OS
             0 MiB allocation reported by mallinfo(arena+hblkhd)
         18458 MiB available memory on the node where the printing process lives
------------------
     ethr =  1.93E-11,  avg # of iterations =  3.0

     negative rho (up, down):  7.552E-03 0.000E+00

     total cpu time spent up to now is      344.4 secs

     total energy              =    -396.38508192 Ry
     estimated scf accuracy    <          4.5E-09 Ry

     iteration #  7     ecut=    50.00 Ry     beta= 0.30
     Davidson diagonalization with overlap

---- Real-time Memory Report at c_bands before calling an iterative solver
          3185 MiB given to the printing process from OS
             0 MiB allocation reported by mallinfo(arena+hblkhd)
         18426 MiB available memory on the node where the printing process lives
------------------
     ethr =  3.14E-12,  avg # of iterations =  5.0

     negative rho (up, down):  7.552E-03 0.000E+00

     total cpu time spent up to now is      357.5 secs

     total energy              =    -396.38508192 Ry
     estimated scf accuracy    <          9.4E-10 Ry

     iteration #  8     ecut=    50.00 Ry     beta= 0.30
     Davidson diagonalization with overlap

---- Real-time Memory Report at c_bands before calling an iterative solver
          3185 MiB given to the printing process from OS
             0 MiB allocation reported by mallinfo(arena+hblkhd)
         18407 MiB available memory on the node where the printing process lives
------------------
     ethr =  6.56E-13,  avg # of iterations =  5.0

     negative rho (up, down):  7.552E-03 0.000E+00

     total cpu time spent up to now is      370.4 secs

     total energy              =    -396.38508192 Ry
     estimated scf accuracy    <          2.8E-10 Ry

     iteration #  9     ecut=    50.00 Ry     beta= 0.30
     Davidson diagonalization with overlap

---- Real-time Memory Report at c_bands before calling an iterative solver
          3185 MiB given to the printing process from OS
             0 MiB allocation reported by mallinfo(arena+hblkhd)
         18374 MiB available memory on the node where the printing process lives
------------------
     ethr =  1.97E-13,  avg # of iterations =  5.0

     negative rho (up, down):  7.552E-03 0.000E+00

     total cpu time spent up to now is      383.1 secs

     total energy              =    -396.38508192 Ry
     estimated scf accuracy    <          2.9E-11 Ry

     iteration # 10     ecut=    50.00 Ry     beta= 0.30
     Davidson diagonalization with overlap

---- Real-time Memory Report at c_bands before calling an iterative solver
          3185 MiB given to the printing process from OS
             0 MiB allocation reported by mallinfo(arena+hblkhd)
         18347 MiB available memory on the node where the printing process lives
------------------
     ethr =  1.00E-13,  avg # of iterations =  1.0

     negative rho (up, down):  7.552E-03 0.000E+00

     total cpu time spent up to now is      394.6 secs

     End of self-consistent calculation

          k = 0.0000 0.0000 0.0000 (110206 PWs)   bands (ev):

   -22.6438 -21.5141 -21.4217 -20.8648 -20.5494 -20.0023 -19.5238 -19.4189
   -18.9305 -18.5060 -18.2708 -18.1466 -17.9691 -17.4968 -17.1037 -16.7146
   -15.7782 -15.3362 -15.3018 -15.2089 -15.0556 -14.6800 -13.7581 -13.6440
   -13.5640 -13.2586 -12.7197 -12.6607 -12.5816 -11.7782 -11.7325 -11.2724
   -11.2482 -11.2055 -10.9877 -10.7093 -10.3406 -10.2376 -10.1396 -10.0503
   -10.0403  -9.8677  -9.7789  -9.7462  -9.5187  -9.3098  -9.2904  -9.1051
    -8.9445  -8.9008  -8.7721  -8.5889  -8.3829  -8.2463  -8.2418  -8.0648
    -7.8776  -7.8153  -7.5963  -7.3366  -7.3149  -7.0429  -7.0088  -6.7742
    -6.6534  -5.9710  -5.9578  -5.6598  -5.2470  -4.7541  -4.4870  -3.3765

     occupation numbers 
     1.0000   1.0000   1.0000   1.0000   1.0000   1.0000   1.0000   1.0000
     1.0000   1.0000   1.0000   1.0000   1.0000   1.0000   1.0000   1.0000
     1.0000   1.0000   1.0000   1.0000   1.0000   1.0000   1.0000   1.0000
     1.0000   1.0000   1.0000   1.0000   1.0000   1.0000   1.0000   1.0000
     1.0000   1.0000   1.0000   1.0000   1.0000   1.0000   1.0000   1.0000
     1.0000   1.0000   1.0000   1.0000   1.0000   1.0000   1.0000   1.0000
     1.0000   1.0000   1.0000   1.0000   1.0000   1.0000   1.0000   1.0000
     1.0000   1.0000   1.0000   1.0000   1.0000   1.0000   1.0000   1.0000
     1.0000   1.0000   1.0000   1.0000   1.0000   1.0000   1.0000   1.0000

     highest occupied level (ev):    -3.3765

!    total energy              =    -396.38508192 Ry
     estimated scf accuracy    <          8.8E-12 Ry

     The total energy is the sum of the following terms:
     one-electron contribution =   -3229.19131224 Ry
     hartree contribution      =    1631.87440465 Ry
     xc contribution           =    -130.53178493 Ry
     ewald contribution        =    1331.46361061 Ry

     convergence has been achieved in  10 iterations

     negative rho (up, down):  7.552E-03 0.000E+00

     Forces acting on atoms (cartesian axes, Ry/au):

     atom    1 type  1   force =     0.00011799   -0.00049581    0.00054992
     atom    2 type  1   force =    -0.00008315   -0.00015868   -0.00039271
     atom    3 type  1   force =     0.00012009    0.00001750    0.00055711
     atom    4 type  1   force =    -0.00001629   -0.00002975    0.00026058
     atom    5 type  1   force =     0.00008238    0.00005770   -0.00015952
     atom    6 type  1   force =     0.00027597   -0.00039550   -0.00017320
     atom    7 type  1   force =    -0.00001564    0.00033807   -0.00069379
     atom    8 type  1   force =     0.00050512    0.00028870   -0.00040667
     atom    9 type  1   force =    -0.00021596   -0.00019099   -0.00007126
     atom   10 type  1   force =     0.00035686    0.00011310    0.00027942
     atom   11 type  1   force =    -0.00039993   -0.00033613    0.00001680
     atom   12 type  1   force =     0.00032956    0.00043706   -0.00019366
     atom   13 type  1   force =    -0.00050278   -0.00022030   -0.00020200
     atom   14 type  1   force =     0.00016982    0.00018509   -0.00007503
     atom   15 type  1   force =     0.00041166    0.00039563   -0.00027337
     atom   16 type  1   force =    -0.00056499    0.00000469   -0.00029982
     atom   17 type  1   force =    -0.00026195   -0.00013563    0.00054136
     atom   18 type  1   force =    -0.00004079   -0.00037534    0.00056290
     atom   19 type  1   force =    -0.00010043   -0.00029411    0.00006530
     atom   20 type  1   force =    -0.00011187   -0.00033815   -0.00019830
     atom   21 type  1   force =    -0.00008052    0.00011797   -0.00010021
     atom   22 type  1   force =    -0.00010029    0.00001528    0.00038689
     atom   23 type  1   force =     0.00009550   -0.00032394    0.00014363
     atom   24 type  1   force =    -0.00012321   -0.00007163   -0.00016028
     atom   25 type  1   force =     0.00006259    0.00030718   -0.00040946
     atom   26 type  1   force =     0.00031165   -0.00019634   -0.00015809
     atom   27 type  1   force =    -0.00020584    0.00014756   -0.00044157
     atom   28 type  1   force =    -0.00002176   -0.00000542    0.00040659
     atom   29 type  1   force =     0.00029922    0.00040363   -0.00032135
     atom   30 type  1   force =    -0.00042594   -0.00002588   -0.00060116
     atom   31 type  1   force =    -0.00003005    0.00036331   -0.00033132
     atom   32 type  2   force =    -0.00029884   -0.00002142    0.00032965
     atom   33 type  2   force =    -0.00009128   -0.00003932   -0.00020649
     atom   34 type  2   force =     0.00016510   -0.00025085   -0.00010002
     atom   35 type  2   force =     0.00033122   -0.00005758   -0.00017390
     atom   36 type  2   force =     0.00029699   -0.00003200    0.00020465
     atom   37 type  2   force =    -0.00006958    0.00010224    0.00049087
     atom   38 type  2   force =    -0.00015540   -0.00019423   -0.00009171
     atom   39 type  2   force =     0.00029328   -0.00002705    0.00033029
     atom   40 type  2   force =     0.00017449   -0.00012211   -0.00021853
     atom   41 type  2   force =     0.00008246   -0.00006751    0.00051933
     atom   42 type  2   force =    -0.00012158    0.00006742   -0.00021693
     atom   43 type  2   force =    -0.00042453   -0.00009846    0.00023497
     atom   44 type  2   force =     0.00001031    0.00087059   -0.00030253
     atom   45 type  2   force =    -0.00000515    0.00015188    0.00085140
     atom   46 type  3   force =    -0.00002448    0.00011957    0.00024121
     The non-local contrib.  to forces
     atom    1 type  1   force =     0.00120587    0.03308836    0.00065618
     atom    2 type  1   force =     0.03158261   -0.00947723    0.00313758
     atom    3 type  1   force =     0.04738994    0.02125804    0.00519533
     atom    4 type  1   force =    -0.00535638    0.04937582    0.01499994
     atom    5 type  1   force =     0.02229645   -0.01109246    0.01177167
     atom    6 type  1   force =     0.05403934    0.01799330   -0.00620380
     atom    7 type  1   force =     0.02584036    0.01727549    0.00246117
     atom    8 type  1   force =     0.04811888   -0.01265461    0.01515327
     atom    9 type  1   force =    -0.00013136    0.02615961   -0.00220924
     atom   10 type  1   force =     0.00565379    0.04946942    0.01500970
     atom   11 type  1   force =     0.05452324    0.03005694    0.01658617
     atom   12 type  1   force =     0.00022548    0.24987887    0.09979855
     atom   13 type  1   force =     0.05423739    0.00492370    0.01746624
     atom   14 type  1   force =     0.22868075   -0.14645461    0.10692879
     atom   15 type  1   force =    -0.00131598   -0.03321060   -0.00691229
     atom   16 type  1   force =     0.03864533   -0.02701889    0.01553336
     atom   17 type  1   force =    -0.04748364    0.02111943    0.00517711
     atom   18 type  1   force =    -0.00114138    0.03316221    0.00066253
     atom   19 type  1   force =    -0.05489211    0.03009093    0.01663258
     atom   20 type  1   force =    -0.05388970    0.01802027   -0.00621810
     atom   21 type  1   force =    -0.22861063   -0.14652348    0.10691807
     atom   22 type  1   force =    -0.04129225   -0.09518520    0.02481419
     atom   23 type  1   force =     0.00008324   -0.07836901   -0.01523889
     atom   24 type  1   force =    -0.02232074   -0.01119914    0.01176919
     atom   25 type  1   force =    -0.03158426   -0.00912288    0.00312723
     atom   26 type  1   force =    -0.05437619    0.00493490    0.01750016
     atom   27 type  1   force =    -0.04790996   -0.01273936    0.01512919
     atom   28 type  1   force =     0.04122727   -0.09521686    0.02483433
     atom   29 type  1   force =    -0.03885834   -0.02670539    0.01551784
     atom   30 type  1   force =    -0.02617663    0.01699527    0.00253166
     atom   31 type  1   force =     0.00160763   -0.03322335   -0.00696238
     atom   32 type  2   force =     0.06709741    0.03782698    0.01009313
     atom   33 type  2   force =     0.06598797    0.03949457    0.00929766
     atom   34 type  2   force =     0.00016540    0.07678468    0.01127740
     atom   35 type  2   force =     0.06625183   -0.03770037    0.01344373
     atom   36 type  2   force =     0.06553539   -0.03781650    0.01641449
     atom   37 type  2   force =    -0.00037866   -0.07646756    0.01342307
     atom   38 type  2   force =    -0.00016215    0.07677321    0.01127594
     atom   39 type  2   force =    -0.06709859    0.03782355    0.01009307
     atom   40 type  2   force =    -0.06600939    0.03949558    0.00930087
     atom   41 type  2   force =     0.00038520   -0.07643739    0.01341637
     atom   42 type  2   force =    -0.06628986   -0.03772043    0.01345261
     atom   43 type  2   force =    -0.06551583   -0.03780059    0.01640915
     atom   44 type  2   force =     0.00000514    0.07633569    0.01094620
     atom   45 type  2   force =    -0.00000208   -0.07559571    0.01264938
     atom   46 type  3   force =    -0.00000489   -0.02566420   -0.51434912
     The ionic contribution  to forces
     atom    1 type  1   force =    -9.54409612   -8.53106543   -0.63862410
     atom    2 type  1   force =   -12.27956948   -3.23823536   -0.65799799
     atom    3 type  1   force =    -4.29347703  -11.95089594   -1.05865341
     atom    4 type  1   force =    -2.26506703   -8.56371500   -0.55819285
     atom    5 type  1   force =    -8.15073897   -4.27233170    0.27706999
     atom    6 type  1   force =    -4.57110335   -1.78773567    1.43932672
     atom    7 type  1   force =   -12.28408389    3.09639666   -1.24993757
     atom    8 type  1   force =    -8.16305066    4.17480289   -0.80638323
     atom    9 type  1   force =     0.01017438  -12.40959907   -1.00271272
     atom   10 type  1   force =     2.28230110   -8.57176007   -0.55809754
     atom   11 type  1   force =    -2.56884319   -3.72395067    0.81330695
     atom   12 type  1   force =     0.00376049   -1.25988647    1.64910632
     atom   13 type  1   force =    -4.77246135    1.50251317    0.59340749
     atom   14 type  1   force =    -1.69233723    3.53918640    1.22167894
     atom   15 type  1   force =    -9.46767793    8.47970081   -1.61102759
     atom   16 type  1   force =    -4.30432103   11.89810258   -1.43013621
     atom   17 type  1   force =     4.31102629  -11.96907597   -1.05856161
     atom   18 type  1   force =     9.55486661   -8.55269697   -0.63853405
     atom   19 type  1   force =     2.57503307   -3.73079892    0.81361691
     atom   20 type  1   force =     4.57491355   -1.80022174    1.43936992
     atom   21 type  1   force =     1.68451417    3.53084394    1.22155185
     atom   22 type  1   force =    -1.98687332    8.83175756    0.09470097
     atom   23 type  1   force =    -0.01084018   12.34194394    0.49743578
     atom   24 type  1   force =     8.15515500   -4.29095593    0.27719928
     atom   25 type  1   force =    12.28073572   -3.25762262   -0.65801948
     atom   26 type  1   force =     4.76882812    1.48906546    0.59343767
     atom   27 type  1   force =     8.15949597    4.15528428   -0.80663425
     atom   28 type  1   force =     1.96979720    8.82377734    0.09464957
     atom   29 type  1   force =     4.28547154   11.88109140   -1.43013753
     atom   30 type  1   force =    12.28188639    3.07458437   -1.24981812
     atom   31 type  1   force =     9.45891985    8.45757495   -1.61126191
     atom   32 type  2   force =    -3.69617724   -2.80999531   -0.42877691
     atom   33 type  2   force =    -4.26492126   -1.70351364   -0.41150034
     atom   34 type  2   force =    -0.94365242   -4.53733490   -0.52366864
     atom   35 type  2   force =    -4.26252004    1.62855969   -0.61179878
     atom   36 type  2   force =    -3.65170951    2.79288952   -0.75855610
     atom   37 type  2   force =    -0.93620709    4.52181295   -0.65603644
     atom   38 type  2   force =     0.95006029   -4.54275775   -0.52364998
     atom   39 type  2   force =     3.69832288   -2.81690791   -0.42877451
     atom   40 type  2   force =     4.26544658   -1.70922715   -0.41155980
     atom   41 type  2   force =     0.92968722    4.51578910   -0.65592339
     atom   42 type  2   force =     4.26295072    1.62320021   -0.61195968
     atom   43 type  2   force =     3.64931842    2.78573694   -0.75847263
     atom   44 type  2   force =     0.00385343   -4.77745049   -0.50534805
     atom   45 type  2   force =    -0.00390798    4.78851384   -0.39935926
     atom   46 type  3   force =    -0.00288268    2.87460672   13.68425631
     The local contribution  to forces
     atom    1 type  1   force =     9.54148039    8.49787330    0.63863447
     atom    2 type  1   force =    12.24729533    3.24641692    0.65461404
     atom    3 type  1   force =     4.24744148   11.92852671    1.05398260
     atom    4 type  1   force =     2.26998983    8.51481228    0.54355892
     atom    5 type  1   force =     8.12853795    4.28314218   -0.28863150
     atom    6 type  1   force =     4.51806054    1.76971994   -1.43274964
     atom    7 type  1   force =    12.25752965   -3.11218366    1.24667826
     atom    8 type  1   force =     8.11585234   -4.16178693    0.79093556
     atom    9 type  1   force =    -0.01026235   12.38233995    1.00475225
     atom   10 type  1   force =    -2.28717610    8.52290819    0.54347287
     atom   11 type  1   force =     2.51369373    3.69372716   -0.82963623
     atom   12 type  1   force =    -0.00365216    1.01409314   -1.74809809
     atom   13 type  1   force =     4.71783268   -1.50820358   -0.61083201
     atom   14 type  1   force =     1.46704049   -3.39429787   -1.32771140
     atom   15 type  1   force =     9.46800814   -8.44639740    1.61747871
     atom   16 type  1   force =     4.26623441  -11.87011954    1.41440060
     atom   17 type  1   force =    -4.26504212   11.94669073    1.05389327
     atom   18 type  1   force =    -9.55223605    8.51955324    0.63855129
     atom   19 type  1   force =    -2.52002175    3.70058395   -0.82994314
     atom   20 type  1   force =    -4.52185331    1.78223739   -1.43280369
     atom   21 type  1   force =    -1.45919713   -3.38595488   -1.32759913
     atom   22 type  1   force =     2.02779780   -8.73683967   -0.11880320
     atom   23 type  1   force =     0.01085361  -12.26360935   -0.48158293
     atom   24 type  1   force =    -8.13297210    4.30174256   -0.28875888
     atom   25 type  1   force =   -12.24848043    3.26592247    0.65462896
     atom   26 type  1   force =    -4.71425392   -1.49474360   -0.61085163
     atom   27 type  1   force =    -8.11220322   -4.14232661    0.79117519
     atom   28 type  1   force =    -2.01078087   -8.72884752   -0.11875217
     atom   29 type  1   force =    -4.24744106  -11.85301781    1.41439564
     atom   30 type  1   force =   -12.25544366   -3.09046034    1.24658203
     atom   31 type  1   force =    -9.45915482   -8.42429170    1.61770417
     atom   32 type  2   force =     3.62878092    2.77214696    0.41901348
     atom   33 type  2   force =     4.19884192    1.66397978    0.40199610
     atom   34 type  2   force =     0.94365197    4.46029932    0.51229133
     atom   35 type  2   force =     4.19659955   -1.59091692    0.59818111
     atom   36 type  2   force =     3.58647111   -2.75510500    0.74234621
     atom   37 type  2   force =     0.93651617   -4.44524332    0.64310424
     atom   38 type  2   force =    -0.95005347    4.46579025    0.51228244
     atom   39 type  2   force =    -3.63093104    2.77905738    0.41901179
     atom   40 type  2   force =    -4.19926267    1.66960950    0.40204031
     atom   41 type  2   force =    -0.92999003   -4.43941939    0.64302634
     atom   42 type  2   force =    -4.19678264   -1.58541237    0.59829009
     atom   43 type  2   force =    -3.58422721   -2.74803479    0.74229840
     atom   44 type  2   force =    -0.00384828    4.70198523    0.49409931
     atom   45 type  2   force =     0.00390490   -4.71276636    0.38756127
     atom   46 type  3   force =     0.00286145   -2.85025924  -13.19560363
     The core correction contribution to forces
     atom    1 type  1   force =     0.00152720   -0.00039200   -0.00011619
     atom    2 type  1   force =     0.00060843    0.00113751   -0.00014692
     atom    3 type  1   force =    -0.00123510    0.00112832    0.00003311
     atom    4 type  1   force =     0.00041669   -0.00050293   -0.00010548
     atom    5 type  1   force =    -0.00001351    0.00033948   -0.00036998
     atom    6 type  1   force =    -0.00072111   -0.00037303   -0.00054700
     atom    7 type  1   force =     0.00069825   -0.00115004    0.00010378
     atom    8 type  1   force =    -0.00041582   -0.00007231   -0.00011278
     atom    9 type  1   force =     0.00000358    0.00090818    0.00009806
     atom   10 type  1   force =    -0.00042147   -0.00050482   -0.00010569
     atom   11 type  1   force =     0.00022579   -0.00016933   -0.00024043
     atom   12 type  1   force =    -0.00000463   -0.00364766   -0.00100077
     atom   13 type  1   force =    -0.00011166    0.00054764   -0.00024409
     atom   14 type  1   force =    -0.00321462    0.00175225   -0.00097146
     atom   15 type  1   force =     0.00139813    0.00030288    0.00018773
     atom   16 type  1   force =    -0.00112360   -0.00095954   -0.00009753
     atom   17 type  1   force =     0.00123816    0.00112996    0.00003317
     atom   18 type  1   force =    -0.00152935   -0.00039386   -0.00011643
     atom   19 type  1   force =    -0.00021913   -0.00017006   -0.00024143
     atom   20 type  1   force =     0.00071835   -0.00037389   -0.00054690
     atom   21 type  1   force =     0.00321340    0.00175350   -0.00097116
     atom   22 type  1   force =     0.00026706    0.00028299   -0.00032490
     atom   23 type  1   force =    -0.00000117   -0.00028946   -0.00047015
     atom   24 type  1   force =     0.00001503    0.00034073   -0.00037016
     atom   25 type  1   force =    -0.00060859    0.00113079   -0.00014676
     atom   26 type  1   force =     0.00011400    0.00054816   -0.00024470
     atom   27 type  1   force =     0.00041168   -0.00007044   -0.00011222
     atom   28 type  1   force =    -0.00026502    0.00028210   -0.00032499
     atom   29 type  1   force =     0.00112698   -0.00096461   -0.00009730
     atom   30 type  1   force =    -0.00069228   -0.00114474    0.00010269
     atom   31 type  1   force =    -0.00140342    0.00030339    0.00018872
     atom   32 type  2   force =     0.00000000    0.00000000    0.00000000
     atom   33 type  2   force =     0.00000000    0.00000000    0.00000000
     atom   34 type  2   force =     0.00000000    0.00000000    0.00000000
     atom   35 type  2   force =     0.00000000    0.00000000    0.00000000
     atom   36 type  2   force =     0.00000000    0.00000000    0.00000000
     atom   37 type  2   force =     0.00000000    0.00000000    0.00000000
     atom   38 type  2   force =     0.00000000    0.00000000    0.00000000
     atom   39 type  2   force =     0.00000000    0.00000000    0.00000000
     atom   40 type  2   force =     0.00000000    0.00000000    0.00000000
     atom   41 type  2   force =     0.00000000    0.00000000    0.00000000
     atom   42 type  2   force =     0.00000000    0.00000000    0.00000000
     atom   43 type  2   force =     0.00000000    0.00000000    0.00000000
     atom   44 type  2   force =     0.00000000    0.00000000    0.00000000
     atom   45 type  2   force =     0.00000000    0.00000000    0.00000000
     atom   46 type  3   force =     0.00000153    0.00143768    0.02593789
     The Hubbard contrib.    to forces
     atom    1 type  1   force =     0.00000000    0.00000000    0.00000000
     atom    2 type  1   force =     0.00000000    0.00000000    0.00000000
     atom    3 type  1   force =     0.00000000    0.00000000    0.00000000
     atom    4 type  1   force =     0.00000000    0.00000000    0.00000000
     atom    5 type  1   force =     0.00000000    0.00000000    0.00000000
     atom    6 type  1   force =     0.00000000    0.00000000    0.00000000
     atom    7 type  1   force =     0.00000000    0.00000000    0.00000000
     atom    8 type  1   force =     0.00000000    0.00000000    0.00000000
     atom    9 type  1   force =     0.00000000    0.00000000    0.00000000
     atom   10 type  1   force =     0.00000000    0.00000000    0.00000000
     atom   11 type  1   force =     0.00000000    0.00000000    0.00000000
     atom   12 type  1   force =     0.00000000    0.00000000    0.00000000
     atom   13 type  1   force =     0.00000000    0.00000000    0.00000000
     atom   14 type  1   force =     0.00000000    0.00000000    0.00000000
     atom   15 type  1   force =     0.00000000    0.00000000    0.00000000
     atom   16 type  1   force =     0.00000000    0.00000000    0.00000000
     atom   17 type  1   force =     0.00000000    0.00000000    0.00000000
     atom   18 type  1   force =     0.00000000    0.00000000    0.00000000
     atom   19 type  1   force =     0.00000000    0.00000000    0.00000000
     atom   20 type  1   force =     0.00000000    0.00000000    0.00000000
     atom   21 type  1   force =     0.00000000    0.00000000    0.00000000
     atom   22 type  1   force =     0.00000000    0.00000000    0.00000000
     atom   23 type  1   force =     0.00000000    0.00000000    0.00000000
     atom   24 type  1   force =     0.00000000    0.00000000    0.00000000
     atom   25 type  1   force =     0.00000000    0.00000000    0.00000000
     atom   26 type  1   force =     0.00000000    0.00000000    0.00000000
     atom   27 type  1   force =     0.00000000    0.00000000    0.00000000
     atom   28 type  1   force =     0.00000000    0.00000000    0.00000000
     atom   29 type  1   force =     0.00000000    0.00000000    0.00000000
     atom   30 type  1   force =     0.00000000    0.00000000    0.00000000
     atom   31 type  1   force =     0.00000000    0.00000000    0.00000000
     atom   32 type  2   force =     0.00000000    0.00000000    0.00000000
     atom   33 type  2   force =     0.00000000    0.00000000    0.00000000
     atom   34 type  2   force =     0.00000000    0.00000000    0.00000000
     atom   35 type  2   force =     0.00000000    0.00000000    0.00000000
     atom   36 type  2   force =     0.00000000    0.00000000    0.00000000
     atom   37 type  2   force =     0.00000000    0.00000000    0.00000000
     atom   38 type  2   force =     0.00000000    0.00000000    0.00000000
     atom   39 type  2   force =     0.00000000    0.00000000    0.00000000
     atom   40 type  2   force =     0.00000000    0.00000000    0.00000000
     atom   41 type  2   force =     0.00000000    0.00000000    0.00000000
     atom   42 type  2   force =     0.00000000    0.00000000    0.00000000
     atom   43 type  2   force =     0.00000000    0.00000000    0.00000000
     atom   44 type  2   force =     0.00000000    0.00000000    0.00000000
     atom   45 type  2   force =     0.00000000    0.00000000    0.00000000
     atom   46 type  3   force =     0.00000000    0.00000000    0.00000000
     The SCF correction term to forces
     atom    1 type  1   force =     0.00000062    0.00000000   -0.00000044
     atom    2 type  1   force =    -0.00000008   -0.00000048    0.00000057
     atom    3 type  1   force =     0.00000076    0.00000041   -0.00000053
     atom    4 type  1   force =     0.00000058    0.00000011    0.00000004
     atom    5 type  1   force =     0.00000044    0.00000025    0.00000029
     atom    6 type  1   force =     0.00000051    0.00000000    0.00000053
     atom    7 type  1   force =    -0.00000003   -0.00000034    0.00000057
     atom    8 type  1   force =     0.00000034   -0.00000029    0.00000051
     atom    9 type  1   force =    -0.00000024    0.00000037    0.00000038
     atom   10 type  1   force =    -0.00000048    0.00000042    0.00000007
     atom   11 type  1   force =     0.00000047   -0.00000019    0.00000033
     atom   12 type  1   force =     0.00000033   -0.00000078    0.00000031
     atom   13 type  1   force =     0.00000012   -0.00000120    0.00000036
     atom   14 type  1   force =     0.00000039   -0.00000104    0.00000010
     atom   15 type  1   force =    -0.00000073   -0.00000002    0.00000007
     atom   16 type  1   force =    -0.00000013    0.00000012   -0.00000003
     atom   17 type  1   force =    -0.00000066    0.00000026   -0.00000059
     atom   18 type  1   force =    -0.00000064    0.00000007   -0.00000044
     atom   19 type  1   force =    -0.00000054    0.00000004    0.00000037
     atom   20 type  1   force =    -0.00000079   -0.00000015    0.00000047
     atom   21 type  1   force =    -0.00000037   -0.00000107    0.00000015
     atom   22 type  1   force =     0.00000037   -0.00000037   -0.00000017
     atom   23 type  1   force =    -0.00000003   -0.00000003   -0.00000019
     atom   24 type  1   force =    -0.00000042    0.00000018    0.00000029
     atom   25 type  1   force =     0.00000011   -0.00000055    0.00000059
     atom   26 type  1   force =    -0.00000039   -0.00000122    0.00000041
     atom   27 type  1   force =    -0.00000035   -0.00000028    0.00000052
     atom   28 type  1   force =    -0.00000039   -0.00000044   -0.00000015
     atom   29 type  1   force =     0.00000006    0.00000007   -0.00000001
     atom   30 type  1   force =     0.00000022   -0.00000040    0.00000058
     atom   31 type  1   force =     0.00000067    0.00000005    0.00000008
     atom   32 type  2   force =     0.00000003   -0.00000002   -0.00000005
     atom   33 type  2   force =     0.00000006    0.00000001    0.00000007
     atom   34 type  2   force =     0.00000012    0.00000009   -0.00000011
     atom   35 type  2   force =    -0.00000015    0.00000005    0.00000005
     atom   36 type  2   force =    -0.00000004    0.00000001    0.00000004
     atom   37 type  2   force =    -0.00000003    0.00000021   -0.00000000
     atom   38 type  2   force =    -0.00000010    0.00000010   -0.00000011
     atom   39 type  2   force =     0.00000000   -0.00000003   -0.00000006
     atom   40 type  2   force =    -0.00000006    0.00000000    0.00000008
     atom   41 type  2   force =     0.00000003    0.00000021   -0.00000000
     atom   42 type  2   force =     0.00000017    0.00000005    0.00000005
     atom   43 type  2   force =     0.00000006    0.00000002    0.00000003
     atom   44 type  2   force =    -0.00000001    0.00000020    0.00000001
     atom   45 type  2   force =    -0.00000002    0.00000015    0.00000001
     atom   46 type  3   force =     0.00000007   -0.00000135   -0.00000026

     Total force =     0.003414     Total SCF correction =     0.000005
     Energy error            =      3.2E-05 Ry
     Gradient error          =      8.7E-04 Ry/Bohr

     bfgs converged in   3 scf cycles and   2 bfgs steps
     (criteria: energy <  1.0E-04 Ry, force <  1.0E-03 Ry/Bohr)

     End of BFGS Geometry Optimization

     Final energy             =    -396.3850819211 Ry

     File /home/nihal/Desktop/OtptfGG/s_gqd_1.bfgs deleted, as requested
Begin final coordinates

ATOMIC_POSITIONS (angstrom)
C                2.3104611932        8.2138801620        4.9435537087
C                1.0642767735       10.3566508298        4.9048316507
C                3.4905289287        7.5235559631        4.9164027012
C                4.7441248139        8.1957308918        5.0699204962
C                2.2756105378        9.6383472830        5.0826489582
C                3.4880996789       10.3433383533        5.3020484051
C                1.0608581974       11.7343745009        4.8274220238
C                2.2558165896       12.4790808527        4.9605741496
C                5.9761224999        7.5278334622        4.9892399170
C                7.2079330599        8.1956987018        5.0699210487
C                4.7281021964        9.6106081770        5.3297586893
C                5.9759858245       10.2197802150        5.5316737453
C                3.4722524326       11.7860539247        5.2681709391
C                4.6136306607       12.5729286727        5.4652333245
C                2.3137393145       13.8969082485        4.8057045615
C                3.4897550558       14.6019040163        4.8990417614
C                8.4616482241        7.5236029503        4.9164131524
C                9.6416637124        8.2138653580        4.9435582771
C                7.2241565812        9.6106012686        5.3297493730
C                8.4639916247       10.3433326431        5.3020506004
C                7.3384652664       12.5729482218        5.4652221710
C                4.7307931479       13.9638203324        5.2333921972
C                5.9760310714       14.6421538356        5.2571371390
C                9.6765384864        9.6383940933        5.0826522239
C               10.8878600615       10.3565552390        4.9048263836
C                8.4799167761       11.7860560505        5.2681436639
C                9.6962266297       12.4791300366        4.9605609151
C                7.2213438494       13.9638298920        5.2333786783
C                8.4624182413       14.6018157420        4.8990384828
C               10.8913743770       11.7344817616        4.8273764426
C                9.6382758131       13.8969296626        4.8057063845
H                1.3652359605        7.6873030872        4.8018157003
H                0.1383199555        9.7953547757        4.7733195573
H                3.4958139114        6.4440203142        4.7580629811
H                0.1289680510       12.2707027021        4.6373209984
H                1.3865457065       14.4254067375        4.5742331930
H                3.4976704249       15.6771698849        4.7120605218
H                8.4563324095        6.4440181256        4.7580619709
H               10.5869086689        7.6873219428        4.8018191546
H               11.8137948587        9.7953991114        4.7733118049
H                8.4544296752       15.6772223106        4.7120497428
H               11.8230972418       12.2706942322        4.6372971891
H               10.5655933339       14.4254416802        4.5742130575
H                5.9760680177        6.4460318123        4.8330473727
H                5.9760523442       15.7166195393        5.0728336265
S                5.9760722604       11.8184483722        6.2852009642
End final coordinates



     Writing all to output data dir /home/nihal/Desktop/OtptfGG/s_gqd_1.save/ :
     XML data file, charge density, pseudopotentials, collected wavefunctions

     init_run     :      3.83s CPU      5.72s WALL (       1 calls)
     electrons    :    269.25s CPU    367.32s WALL (       3 calls)
     update_pot   :      2.11s CPU      3.07s WALL (       2 calls)
     forces       :     12.47s CPU     18.97s WALL (       3 calls)

     Called by init_run:
     wfcinit      :      0.03s CPU      0.05s WALL (       1 calls)
     potinit      :      1.17s CPU      1.65s WALL (       1 calls)
     hinit0       :      0.68s CPU      0.82s WALL (       1 calls)

     Called by electrons:
     c_bands      :    109.46s CPU    128.04s WALL (      30 calls)
     sum_band     :     92.16s CPU    128.63s WALL (      30 calls)
     v_of_rho     :     21.80s CPU     32.09s WALL (      30 calls)
     v_h          :      2.30s CPU      3.69s WALL (      30 calls)
     v_xc         :     21.46s CPU     31.35s WALL (      33 calls)
     newd         :     44.88s CPU     80.85s WALL (      30 calls)
     mix_rho      :      4.35s CPU      5.14s WALL (      30 calls)

     Called by c_bands:
     init_us_2    :      2.65s CPU      2.71s WALL (      63 calls)
     regterg      :    106.47s CPU    124.99s WALL (      30 calls)

     Called by sum_band:
     sum_band:wei :      0.00s CPU      0.00s WALL (      30 calls)
     sum_band:loo :     24.12s CPU     24.56s WALL (      30 calls)
     sum_band:buf :      0.00s CPU      0.00s WALL (      30 calls)
     sum_band:ini :      1.27s CPU      1.27s WALL (      30 calls)
     sum_band:cal :      1.76s CPU      1.76s WALL (      30 calls)
     sum_band:bec :      0.00s CPU      0.00s WALL (      30 calls)
     addusdens    :     65.18s CPU    100.58s WALL (      30 calls)
                                        0.00s GPU  (      30 calls)
     addusd:skk   :      2.52s CPU      6.68s WALL (      90 calls)
                                        0.00s GPU  (      90 calls)

     Called by *egterg:
     rdiaghg      :      0.41s CPU      0.42s WALL (     136 calls)
     regterg:over :      4.00s CPU      4.01s WALL (     112 calls)
     regterg:upda :      3.06s CPU      3.06s WALL (     112 calls)
     regterg:last :      1.20s CPU      1.20s WALL (      30 calls)
     h_psi        :     89.43s CPU     91.49s WALL (     142 calls)
     s_psi        :      4.98s CPU      4.99s WALL (     142 calls)
     g_psi        :      0.37s CPU      0.38s WALL (     112 calls)

     Called by h_psi:
     h_psi:calbec :      5.21s CPU      5.22s WALL (     142 calls)
     vloc_psi     :     78.60s CPU     80.65s WALL (     142 calls)
                                        0.00s GPU  (     142 calls)
     add_vuspsi   :      5.07s CPU      5.08s WALL (     142 calls)

     General routines
     calbec       :      7.67s CPU      7.69s WALL (     184 calls)
     fft          :     19.80s CPU     25.57s WALL (     356 calls)
     ffts         :      1.41s CPU      1.56s WALL (      60 calls)
     fftw         :     68.43s CPU     70.34s WALL (    6474 calls)
     interpolate  :      2.81s CPU      3.51s WALL (      30 calls)

     Parallel routines

     PWSCF        :   4m51.06s CPU   6m41.20s WALL


   This run was terminated on:  14:53:40  10Jul2026            

=------------------------------------------------------------------------------=
   JOB DONE.
=------------------------------------------------------------------------------=
