
     Program PWSCF v.7.5 starts on 10Jul2026 at 18:10:27 

     This program is part of the open-source Quantum ESPRESSO suite
     for quantum simulation of materials; please cite
         "P. Giannozzi et al., J. Phys.:Condens. Matter 21 395502 (2009);
         "P. Giannozzi et al., J. Phys.:Condens. Matter 29 465901 (2017);
         "P. Giannozzi et al., J. Chem. Phys. 152 154105 (2020);
          URL http://www.quantum-espresso.org", 
     in publications or presentations arising from this work. More details at
     http://www.quantum-espresso.org/quote

     Parallel version (MPI), running on     3 processors

     MPI processes distributed on     1 nodes
     27671 MiB available memory on the printing compute node when the environment starts

     Reading input from sgqd_scf.in

     Current dimensions of program PWSCF are:
     Max number of different atomic species (ntypx) = 10
     Max number of k-points (npk) =  40000
     Max angular momentum in pseudopotentials (lmaxx) =  4

     gamma-point specific algorithms are used

     R & G space division:  proc/nbgrp/npool/nimage =       3
     Subspace diagonalization in iterative solution of the eigenvalue problem:
     a serial algorithm will be used


     Parallelization info
     --------------------
     sticks:   dense  smooth     PW     G-vecs:    dense   smooth      PW
     Min       20723   10361   2594              1662103   587641   73469
     Max       20724   10364   2596              1662104   587644   73472
     Sum       62171   31089   7785              4986311  1762929  220411

     Using Slab Decomposition



     bravais-lattice index     =            0
     lattice parameter (alat)  =      46.7221  a.u.
     unit-cell volume          =   36909.9625 (a.u.)^3
     number of atoms/cell      =           46
     number of atomic types    =            3
     number of electrons       =       144.00
     number of Kohn-Sham states=           72
     kinetic-energy cutoff     =      50.0000  Ry
     charge density cutoff     =     400.0000  Ry
     scf convergence threshold =      1.0E-09
     mixing beta               =       0.3000
     number of iterations used =            8  plain     mixing
     Exchange-correlation=  SLA  PW   PBX  PBC
                           (   1   4   3   4   0   0   0)

     celldm(1)=  46.722066  celldm(2)=   0.000000  celldm(3)=   0.000000
     celldm(4)=   0.000000  celldm(5)=   0.000000  celldm(6)=   0.000000

     crystal axes: (cart. coord. in units of alat)
               a(1) = (   1.000000   0.000000   0.000000 )  
               a(2) = (  -0.516583   0.894748   0.000000 )  
               a(3) = (   0.000000   0.000000   0.404461 )  

     reciprocal axes: (cart. coord. in units 2 pi/alat)
               b(1) = (  1.000000  0.577350 -0.000000 )  
               b(2) = (  0.000000  1.117633  0.000000 )  
               b(3) = (  0.000000 -0.000000  2.472425 )  


     PseudoPot. # 1 for C  read from file:
     /home/nihal/Desktop/pseudos/C.us.pbe.z_4.uspp.gbrv.v1.2.upf
     MD5 check sum: 9630a62af89b2189feb759fc7f027601
     Pseudo is Ultrasoft + core correction, Zval =  4.0
     
     Using radial grid of  721 points,  4 beta functions with: 
                l(1) =   0
                l(2) =   0
                l(3) =   1
                l(4) =   1
     Q(r) pseudized with 0 coefficients 


     PseudoPot. # 2 for H  read from file:
     /home/nihal/Desktop/pseudos/H.us.pbe.z_1.ld1.psl.v1.0.0-high.upf
     MD5 check sum: e76273ea4edb62c5e3246d46a5fe24e3
     Pseudo is Ultrasoft, Zval =  1.0
     Generated using &quot;atomic&quot; code by A. Dal Corso  v.6.3MaX
     Using radial grid of  929 points,  2 beta functions with: 
                l(1) =   0
                l(2) =   0
     Q(r) pseudized with 0 coefficients 


     PseudoPot. # 3 for S  read from file:
     /home/nihal/Desktop/pseudos/s_pbe_v1.4.uspp.F.UPF
     MD5 check sum: 88d86576ff6df21479756cfb9bdac1df
     Pseudo is Ultrasoft + core correction, Zval =  6.0
     Generated by new atomic code, or converted to UPF format
     Using radial grid of  907 points,  6 beta functions with: 
                l(1) =   0
                l(2) =   0
                l(3) =   1
                l(4) =   1
                l(5) =   2
                l(6) =   2
     Q(r) pseudized with  8 coefficients,  rinner =    1.300   1.300   1.300
                                                       1.300   1.300

     atomic species   valence    mass     pseudopotential
     C                 4.00    12.01100     C ( 1.00)
     H                 1.00     1.00800     H ( 1.00)
     S                 6.00    32.06500     S ( 1.00)

     No symmetry found


                                    s                        frac. trans.

      isym =  1     identity                                     

 cryst.   s( 1) = (     1          0          0      )
                  (     0          1          0      )
                  (     0          0          1      )

 cart.    s( 1) = (  1.0000000  0.0000000  0.0000000 )
                  (  0.0000000  1.0000000  0.0000000 )
                  (  0.0000000  0.0000000  1.0000000 )


   Cartesian axes

     site n.     atom                  positions (alat units)
         1        C      tau(   1) = (   0.0934492   0.3322196   0.1999475  )
         2        C      tau(   2) = (   0.0430459   0.4188863   0.1983814  )
         3        C      tau(   3) = (   0.1411783   0.3042986   0.1988494  )
         4        C      tau(   4) = (   0.1918814   0.3314855   0.2050586  )
         5        C      tau(   5) = (   0.0920396   0.3898337   0.2055734  )
         6        C      tau(   6) = (   0.1410801   0.4183479   0.2144473  )
         7        C      tau(   7) = (   0.0429076   0.4746099   0.1952505  )
         8        C      tau(   8) = (   0.0912390   0.5047304   0.2006360  )
         9        C      tau(   9) = (   0.2417109   0.3044716   0.2017954  )
        10        C      tau(  10) = (   0.2915329   0.3314842   0.2050586  )
        11        C      tau(  11) = (   0.1912334   0.3887118   0.2155680  )
        12        C      tau(  12) = (   0.2417054   0.4133504   0.2237347  )
        13        C      tau(  13) = (   0.1404391   0.4767001   0.2130771  )
        14        C      tau(  14) = (   0.1866034   0.5085261   0.2210475  )
        15        C      tau(  15) = (   0.0935818   0.5620760   0.1943721  )
        16        C      tau(  16) = (   0.1411470   0.5905903   0.1981472  )
        17        C      tau(  17) = (   0.3422408   0.3043005   0.1988498  )
        18        C      tau(  18) = (   0.3899679   0.3322190   0.1999477  )
        19        C      tau(  19) = (   0.2921891   0.3887115   0.2155677  )
        20        C      tau(  20) = (   0.3423356   0.4183476   0.2144474  )
        21        C      tau(  21) = (   0.2968124   0.5085269   0.2210470  )
        22        C      tau(  22) = (   0.1913422   0.5647823   0.2116704  )
        23        C      tau(  23) = (   0.2417072   0.5922183   0.2126308  )
        24        C      tau(  24) = (   0.3913784   0.3898356   0.2055735  )
        25        C      tau(  25) = (   0.4403717   0.4188824   0.1983812  )
        26        C      tau(  26) = (   0.3429797   0.4767002   0.2130760  )
        27        C      tau(  27) = (   0.3921747   0.5047323   0.2006354  )
        28        C      tau(  28) = (   0.2920753   0.5647827   0.2116698  )
        29        C      tau(  29) = (   0.3422720   0.5905867   0.1981471  )
        30        C      tau(  30) = (   0.4405138   0.4746142   0.1952486  )
        31        C      tau(  31) = (   0.3898308   0.5620768   0.1943722  )
        32        H      tau(  32) = (   0.0552185   0.3109216   0.1942148  )
        33        H      tau(  33) = (   0.0055945   0.3961841   0.1930622  )
        34        H      tau(  34) = (   0.1413921   0.2606356   0.1924452  )
        35        H      tau(  35) = (   0.0052163   0.4963023   0.1875616  )
        36        H      tau(  36) = (   0.0560804   0.5834517   0.1850100  )
        37        H      tau(  37) = (   0.1414672   0.6340806   0.1905845  )
        38        H      tau(  38) = (   0.3420258   0.2606355   0.1924451  )
        39        H      tau(  39) = (   0.4281993   0.3109223   0.1942149  )
        40        H      tau(  40) = (   0.4778221   0.3961859   0.1930619  )
        41        H      tau(  41) = (   0.3419488   0.6340828   0.1905841  )
        42        H      tau(  42) = (   0.4781984   0.4963019   0.1875607  )
        43        H      tau(  43) = (   0.4273372   0.5834531   0.1850092  )
        44        H      tau(  44) = (   0.2417087   0.2607170   0.1954780  )
        45        H      tau(  45) = (   0.2417081   0.6356762   0.2051764  )
        46        S      tau(  46) = (   0.2417089   0.4780103   0.2542120  )

   Crystallographic axes

     site n.     atom                  positions (cryst. coord.)
         1        C      tau(   1) = (  0.2852562  0.3712996  0.4943554  )
         2        C      tau(   2) = (  0.2848900  0.4681613  0.4904832  )
         3        C      tau(   3) = (  0.3168652  0.3400943  0.4916403  )
         4        C      tau(   4) = (  0.3832647  0.3704792  0.5069920  )
         5        C      tau(   5) = (  0.3171102  0.4356912  0.5082649  )
         6        C      tau(   6) = (  0.3826133  0.4675595  0.5302048  )
         7        C      tau(   7) = (  0.3169237  0.5304398  0.4827422  )
         8        C      tau(   8) = (  0.3826452  0.5641035  0.4960574  )
         9        C      tau(   9) = (  0.4174977  0.3402876  0.4989240  )
        10        C      tau(  10) = (  0.4829154  0.3704778  0.5069921  )
        11        C      tau(  11) = (  0.4156562  0.4344372  0.5329759  )
        12        C      tau(  12) = (  0.4803534  0.4619742  0.5531674  )
        13        C      tau(  13) = (  0.4156621  0.5327759  0.5268171  )
        14        C      tau(  14) = (  0.4802011  0.5683458  0.5465233  )
        15        C      tau(  15) = (  0.4180965  0.6281948  0.4805705  )
        16        C      tau(  16) = (  0.4821245  0.6600634  0.4899042  )
        17        C      tau(  17) = (  0.5179288  0.3400964  0.4916413  )
        18        C      tau(  18) = (  0.5817746  0.3712990  0.4943558  )
        19        C      tau(  19) = (  0.5166118  0.4344369  0.5329749  )
        20        C      tau(  20) = (  0.5838687  0.4675593  0.5302051  )
        21        C      tau(  21) = (  0.5904106  0.5683466  0.5465222  )
        22        C      tau(  22) = (  0.5174194  0.6312195  0.5233392  )
        23        C      tau(  23) = (  0.5836246  0.6618829  0.5257137  )
        24        C      tau(  24) = (  0.6164501  0.4356933  0.5082652  )
        25        C      tau(  25) = (  0.6822135  0.4681570  0.4904826  )
        26        C      tau(  26) = (  0.6182027  0.5327760  0.5268144  )
        27        C      tau(  27) = (  0.6835821  0.5641057  0.4960561  )
        28        C      tau(  28) = (  0.6181528  0.6312200  0.5233379  )
        29        C      tau(  29) = (  0.6832474  0.6600594  0.4899038  )
        30        C      tau(  30) = (  0.7145324  0.5304447  0.4827376  )
        31        C      tau(  31) = (  0.7143460  0.6281958  0.4805706  )
        32        H      tau(  32) = (  0.2347291  0.3474963  0.4801816  )
        33        H      tau(  33) = (  0.2343315  0.4427885  0.4773320  )
        34        H      tau(  34) = (  0.2918701  0.2912950  0.4758063  )
        35        H      tau(  35) = (  0.2917565  0.5546840  0.4637321  )
        36        H      tau(  36) = (  0.3929364  0.6520850  0.4574233  )
        37        H      tau(  37) = (  0.5075538  0.7086696  0.4712061  )
        38        H      tau(  38) = (  0.4925038  0.2912949  0.4758062  )
        39        H      tau(  39) = (  0.6077104  0.3474971  0.4801819  )
        40        H      tau(  40) = (  0.7065601  0.4427905  0.4773312  )
        41        H      tau(  41) = (  0.7080367  0.7086720  0.4712050  )
        42        H      tau(  42) = (  0.7647384  0.5546836  0.4637297  )
        43        H      tau(  43) = (  0.7641940  0.6520866  0.4574213  )
        44        H      tau(  44) = (  0.3922337  0.2913860  0.4833047  )
        45        H      tau(  45) = (  0.6087159  0.7104529  0.5072834  )
        46        S      tau(  46) = (  0.5176883  0.5342403  0.6285201  )

     number of k points=     1
                       cart. coord. in units 2pi/alat
        k(    1) = (   0.0000000   0.0000000   0.0000000), wk =   2.0000000

                       cryst. coord.
        k(    1) = (   0.0000000   0.0000000   0.0000000), wk =   2.0000000

     Dense  grid:  2493156 G-vectors     FFT dimensions: ( 300, 320, 125)

     Smooth grid:   881465 G-vectors     FFT dimensions: ( 216, 225,  90)

     Dynamical RAM for                 wfc:      40.35 MB

     Dynamical RAM for     wfc (w. buffer):      40.35 MB

     Dynamical RAM for           str. fact:      38.04 MB

     Dynamical RAM for           local pot:       0.00 MB

     Dynamical RAM for          nlocal pot:     164.76 MB

     Dynamical RAM for                qrad:       4.82 MB

     Dynamical RAM for          rho,v,vnew:     130.33 MB

     Dynamical RAM for               rhoin:      43.44 MB

     Dynamical RAM for            rho*nmix:     202.89 MB

     Dynamical RAM for           G-vectors:      49.79 MB

     Dynamical RAM for          h,s,v(r/c):      17.09 MB

     Dynamical RAM for          <psi|beta>:       0.16 MB

     Dynamical RAM for                 psi:     484.21 MB

     Dynamical RAM for                hpsi:     484.21 MB

     Dynamical RAM for                spsi:     484.21 MB

     Dynamical RAM for      wfcinit/wfcrot:      80.82 MB

     Dynamical RAM for           addusdens:    2751.74 MB

     Estimated static dynamical RAM per process >     676.07 MB

     Estimated max dynamical RAM per process >       3.55 GB

     Estimated total dynamical RAM >      10.64 GB

     The initial density is read from file :
     /home/nihal/Desktop/OtptfGG/s_gqd_1.save/charge-density


     negative rho (up, down):  7.552E-03 0.000E+00
     Starting wfcs from file

     total cpu time spent up to now is        5.7 secs

     Self-consistent Calculation

     iteration #  1     ecut=    50.00 Ry     beta= 0.30
     Davidson diagonalization with overlap

---- Real-time Memory Report at c_bands before calling an iterative solver
          2718 MiB given to the printing process from OS
             0 MiB allocation reported by mallinfo(arena+hblkhd)
         25287 MiB available memory on the node where the printing process lives
------------------
     ethr =  1.00E-05,  avg # of iterations =  1.0

     Threshold (ethr) on eigenvalues was too large:
     Diagonalizing with lowered threshold

     Davidson diagonalization with overlap

---- Real-time Memory Report at c_bands before calling an iterative solver
          2997 MiB given to the printing process from OS
             0 MiB allocation reported by mallinfo(arena+hblkhd)
         24669 MiB available memory on the node where the printing process lives
------------------
     ethr =  1.00E-13,  avg # of iterations =  4.0

     negative rho (up, down):  7.552E-03 0.000E+00

     total cpu time spent up to now is       25.4 secs

     End of self-consistent calculation

          k = 0.0000 0.0000 0.0000 (110206 PWs)   bands (ev):

   -22.6438 -21.5141 -21.4217 -20.8648 -20.5494 -20.0023 -19.5238 -19.4189
   -18.9305 -18.5060 -18.2708 -18.1466 -17.9691 -17.4968 -17.1037 -16.7146
   -15.7782 -15.3362 -15.3018 -15.2089 -15.0556 -14.6800 -13.7581 -13.6440
   -13.5640 -13.2586 -12.7197 -12.6607 -12.5816 -11.7782 -11.7325 -11.2724
   -11.2482 -11.2055 -10.9877 -10.7093 -10.3406 -10.2376 -10.1396 -10.0503
   -10.0403  -9.8677  -9.7789  -9.7462  -9.5187  -9.3098  -9.2904  -9.1051
    -8.9445  -8.9008  -8.7721  -8.5889  -8.3829  -8.2463  -8.2418  -8.0648
    -7.8776  -7.8153  -7.5963  -7.3366  -7.3149  -7.0429  -7.0088  -6.7742
    -6.6534  -5.9710  -5.9578  -5.6598  -5.2470  -4.7541  -4.4871  -3.3765

     occupation numbers 
     1.0000   1.0000   1.0000   1.0000   1.0000   1.0000   1.0000   1.0000
     1.0000   1.0000   1.0000   1.0000   1.0000   1.0000   1.0000   1.0000
     1.0000   1.0000   1.0000   1.0000   1.0000   1.0000   1.0000   1.0000
     1.0000   1.0000   1.0000   1.0000   1.0000   1.0000   1.0000   1.0000
     1.0000   1.0000   1.0000   1.0000   1.0000   1.0000   1.0000   1.0000
     1.0000   1.0000   1.0000   1.0000   1.0000   1.0000   1.0000   1.0000
     1.0000   1.0000   1.0000   1.0000   1.0000   1.0000   1.0000   1.0000
     1.0000   1.0000   1.0000   1.0000   1.0000   1.0000   1.0000   1.0000
     1.0000   1.0000   1.0000   1.0000   1.0000   1.0000   1.0000   1.0000

     highest occupied level (ev):    -3.3765

!    total energy              =    -396.38508192 Ry
     estimated scf accuracy    <          3.1E-11 Ry

     The total energy is the sum of the following terms:
     one-electron contribution =   -3229.19136357 Ry
     hartree contribution      =    1631.87445538 Ry
     xc contribution           =    -130.53178434 Ry
     ewald contribution        =    1331.46361061 Ry

     convergence has been achieved in   1 iterations

     Writing all to output data dir /home/nihal/Desktop/OtptfGG/s_gqd_1.save/ :
     XML data file, charge density, pseudopotentials, collected wavefunctions

     init_run     :      3.76s CPU      5.68s WALL (       1 calls)
     electrons    :     14.40s CPU     19.69s WALL (       1 calls)

     Called by init_run:
     wfcinit      :      0.03s CPU      0.14s WALL (       1 calls)
     potinit      :      1.14s CPU      1.62s WALL (       1 calls)
     hinit0       :      0.69s CPU      0.82s WALL (       1 calls)

     Called by electrons:
     c_bands      :      5.90s CPU      7.21s WALL (       2 calls)
     sum_band     :      6.16s CPU      8.52s WALL (       2 calls)
     v_of_rho     :      1.44s CPU      2.12s WALL (       2 calls)
     v_h          :      0.15s CPU      0.25s WALL (       2 calls)
     v_xc         :      1.29s CPU      1.87s WALL (       2 calls)
     newd         :      2.93s CPU      5.27s WALL (       2 calls)
     mix_rho      :      0.01s CPU      0.01s WALL (       2 calls)

     Called by c_bands:
     init_us_2    :      0.15s CPU      0.21s WALL (       4 calls)
     regterg      :      5.72s CPU      6.97s WALL (       2 calls)

     Called by sum_band:
     sum_band:wei :      0.00s CPU      0.00s WALL (       2 calls)
     sum_band:loo :      1.61s CPU      1.66s WALL (       2 calls)
     sum_band:buf :      0.00s CPU      0.00s WALL (       2 calls)
     sum_band:ini :      0.08s CPU      0.08s WALL (       2 calls)
     sum_band:cal :      0.12s CPU      0.12s WALL (       2 calls)
     sum_band:bec :      0.00s CPU      0.00s WALL (       2 calls)
     addusdens    :      4.37s CPU      6.60s WALL (       2 calls)
                                        0.00s GPU  (       2 calls)
     addusd:skk   :      0.18s CPU      0.43s WALL (       6 calls)
                                        0.00s GPU  (       6 calls)

     Called by *egterg:
     rdiaghg      :      0.02s CPU      0.02s WALL (       5 calls)
     regterg:over :      0.16s CPU      0.16s WALL (       5 calls)
     regterg:upda :      0.12s CPU      0.12s WALL (       5 calls)
     regterg:last :      0.07s CPU      0.07s WALL (       2 calls)
     h_psi        :      4.90s CPU      5.09s WALL (       7 calls)
     s_psi        :      0.26s CPU      0.26s WALL (       7 calls)
     g_psi        :      0.02s CPU      0.02s WALL (       5 calls)

     Called by h_psi:
     h_psi:calbec :      0.28s CPU      0.28s WALL (       7 calls)
     vloc_psi     :      4.32s CPU      4.51s WALL (       7 calls)
                                        0.00s GPU  (       7 calls)
     add_vuspsi   :      0.27s CPU      0.27s WALL (       7 calls)

     General routines
     calbec       :      0.40s CPU      0.40s WALL (       9 calls)
     fft          :      1.51s CPU      1.84s WALL (      21 calls)
     ffts         :      0.34s CPU      0.35s WALL (       4 calls)
     fftw         :      3.91s CPU      4.00s WALL (     370 calls)
     interpolate  :      0.43s CPU      0.50s WALL (       2 calls)

     Parallel routines

     PWSCF        :     18.26s CPU     25.59s WALL


   This run was terminated on:  18:10:52  10Jul2026            

=------------------------------------------------------------------------------=
   JOB DONE.
=------------------------------------------------------------------------------=
