
     Program PWSCF v.7.5 starts on 10Jul2026 at 18:18: 5 

     This program is part of the open-source Quantum ESPRESSO suite
     for quantum simulation of materials; please cite
         "P. Giannozzi et al., J. Phys.:Condens. Matter 21 395502 (2009);
         "P. Giannozzi et al., J. Phys.:Condens. Matter 29 465901 (2017);
         "P. Giannozzi et al., J. Chem. Phys. 152 154105 (2020);
          URL http://www.quantum-espresso.org", 
     in publications or presentations arising from this work. More details at
     http://www.quantum-espresso.org/quote

     Parallel version (MPI), running on     3 processors

     MPI processes distributed on     1 nodes
     26871 MiB available memory on the printing compute node when the environment starts

     Reading input from sgqd_nscf.in

     Current dimensions of program PWSCF are:
     Max number of different atomic species (ntypx) = 10
     Max number of k-points (npk) =  40000
     Max angular momentum in pseudopotentials (lmaxx) =  4

     Atomic positions and unit cell read from directory:
     /home/nihal/Desktop/OtptfGG/s_gqd_1.save/


     R & G space division:  proc/nbgrp/npool/nimage =       3
     Subspace diagonalization in iterative solution of the eigenvalue problem:
     a serial algorithm will be used


     Parallelization info
     --------------------
     sticks:   dense  smooth     PW     G-vecs:    dense   smooth      PW
     Min       24868   12435   3216              2184895   772506  101593
     Max       24869   12436   3218              2184896   772507  101594
     Sum       74605   37307   9651              6554687  2317519  304781

     Using Slab Decomposition



     bravais-lattice index     =            0
     lattice parameter (alat)  =      46.7221  a.u.
     unit-cell volume          =   36909.9625 (a.u.)^3
     number of atoms/cell      =           46
     number of atomic types    =            3
     number of electrons       =       144.00
     number of Kohn-Sham states=           90
     kinetic-energy cutoff     =      60.0000  Ry
     charge density cutoff     =     480.0000  Ry
     Exchange-correlation=  SLA  PW   PBX  PBC
                           (   1   4   3   4   0   0   0)

     celldm(1)=  46.722066  celldm(2)=   0.000000  celldm(3)=   0.000000
     celldm(4)=   0.000000  celldm(5)=   0.000000  celldm(6)=   0.000000

     crystal axes: (cart. coord. in units of alat)
               a(1) = (   1.000000   0.000000   0.000000 )  
               a(2) = (  -0.516583   0.894748   0.000000 )  
               a(3) = (   0.000000   0.000000   0.404461 )  

     reciprocal axes: (cart. coord. in units 2 pi/alat)
               b(1) = (  1.000000  0.577350 -0.000000 )  
               b(2) = (  0.000000  1.117633  0.000000 )  
               b(3) = (  0.000000 -0.000000  2.472425 )  


     PseudoPot. # 1 for C  read from file:
     /home/nihal/Desktop/pseudos/C.us.pbe.z_4.uspp.gbrv.v1.2.upf
     MD5 check sum: 9630a62af89b2189feb759fc7f027601
     Pseudo is Ultrasoft + core correction, Zval =  4.0
     
     Using radial grid of  721 points,  4 beta functions with: 
                l(1) =   0
                l(2) =   0
                l(3) =   1
                l(4) =   1
     Q(r) pseudized with 0 coefficients 


     PseudoPot. # 2 for H  read from file:
     /home/nihal/Desktop/pseudos/H.us.pbe.z_1.ld1.psl.v1.0.0-high.upf
     MD5 check sum: e76273ea4edb62c5e3246d46a5fe24e3
     Pseudo is Ultrasoft, Zval =  1.0
     Generated using &quot;atomic&quot; code by A. Dal Corso  v.6.3MaX
     Using radial grid of  929 points,  2 beta functions with: 
                l(1) =   0
                l(2) =   0
     Q(r) pseudized with 0 coefficients 


     PseudoPot. # 3 for S  read from file:
     /home/nihal/Desktop/pseudos/s_pbe_v1.4.uspp.F.UPF
     MD5 check sum: 88d86576ff6df21479756cfb9bdac1df
     Pseudo is Ultrasoft + core correction, Zval =  6.0
     Generated by new atomic code, or converted to UPF format
     Using radial grid of  907 points,  6 beta functions with: 
                l(1) =   0
                l(2) =   0
                l(3) =   1
                l(4) =   1
                l(5) =   2
                l(6) =   2
     Q(r) pseudized with  8 coefficients,  rinner =    1.300   1.300   1.300
                                                       1.300   1.300

     atomic species   valence    mass     pseudopotential
     C                 4.00    12.01100     C ( 1.00)
     H                 1.00     1.00800     H ( 1.00)
     S                 6.00    32.06500     S ( 1.00)

     No symmetry found


                                    s                        frac. trans.

      isym =  1     identity                                     

 cryst.   s( 1) = (     1          0          0      )
                  (     0          1          0      )
                  (     0          0          1      )

 cart.    s( 1) = (  1.0000000 -0.0000000  0.0000000 )
                  (  0.0000000  1.0000000  0.0000000 )
                  (  0.0000000  0.0000000  1.0000000 )


   Cartesian axes

     site n.     atom                  positions (alat units)
         1        C      tau(   1) = (   0.0934492   0.3322196   0.1999475  )
         2        C      tau(   2) = (   0.0430459   0.4188863   0.1983814  )
         3        C      tau(   3) = (   0.1411783   0.3042986   0.1988494  )
         4        C      tau(   4) = (   0.1918814   0.3314855   0.2050586  )
         5        C      tau(   5) = (   0.0920396   0.3898337   0.2055734  )
         6        C      tau(   6) = (   0.1410801   0.4183479   0.2144473  )
         7        C      tau(   7) = (   0.0429076   0.4746099   0.1952505  )
         8        C      tau(   8) = (   0.0912390   0.5047304   0.2006360  )
         9        C      tau(   9) = (   0.2417109   0.3044716   0.2017954  )
        10        C      tau(  10) = (   0.2915329   0.3314842   0.2050586  )
        11        C      tau(  11) = (   0.1912334   0.3887118   0.2155680  )
        12        C      tau(  12) = (   0.2417054   0.4133504   0.2237347  )
        13        C      tau(  13) = (   0.1404391   0.4767001   0.2130771  )
        14        C      tau(  14) = (   0.1866034   0.5085261   0.2210475  )
        15        C      tau(  15) = (   0.0935818   0.5620760   0.1943721  )
        16        C      tau(  16) = (   0.1411470   0.5905903   0.1981472  )
        17        C      tau(  17) = (   0.3422408   0.3043005   0.1988498  )
        18        C      tau(  18) = (   0.3899679   0.3322190   0.1999477  )
        19        C      tau(  19) = (   0.2921891   0.3887115   0.2155677  )
        20        C      tau(  20) = (   0.3423356   0.4183476   0.2144474  )
        21        C      tau(  21) = (   0.2968124   0.5085269   0.2210470  )
        22        C      tau(  22) = (   0.1913422   0.5647823   0.2116704  )
        23        C      tau(  23) = (   0.2417072   0.5922183   0.2126308  )
        24        C      tau(  24) = (   0.3913784   0.3898356   0.2055735  )
        25        C      tau(  25) = (   0.4403717   0.4188824   0.1983812  )
        26        C      tau(  26) = (   0.3429797   0.4767002   0.2130760  )
        27        C      tau(  27) = (   0.3921747   0.5047323   0.2006354  )
        28        C      tau(  28) = (   0.2920753   0.5647827   0.2116698  )
        29        C      tau(  29) = (   0.3422720   0.5905867   0.1981471  )
        30        C      tau(  30) = (   0.4405138   0.4746142   0.1952486  )
        31        C      tau(  31) = (   0.3898308   0.5620768   0.1943722  )
        32        H      tau(  32) = (   0.0552185   0.3109216   0.1942148  )
        33        H      tau(  33) = (   0.0055945   0.3961841   0.1930622  )
        34        H      tau(  34) = (   0.1413921   0.2606356   0.1924452  )
        35        H      tau(  35) = (   0.0052163   0.4963023   0.1875616  )
        36        H      tau(  36) = (   0.0560804   0.5834517   0.1850100  )
        37        H      tau(  37) = (   0.1414672   0.6340806   0.1905845  )
        38        H      tau(  38) = (   0.3420258   0.2606355   0.1924451  )
        39        H      tau(  39) = (   0.4281993   0.3109223   0.1942149  )
        40        H      tau(  40) = (   0.4778221   0.3961859   0.1930619  )
        41        H      tau(  41) = (   0.3419488   0.6340828   0.1905841  )
        42        H      tau(  42) = (   0.4781984   0.4963019   0.1875607  )
        43        H      tau(  43) = (   0.4273372   0.5834531   0.1850092  )
        44        H      tau(  44) = (   0.2417087   0.2607170   0.1954780  )
        45        H      tau(  45) = (   0.2417081   0.6356762   0.2051764  )
        46        S      tau(  46) = (   0.2417089   0.4780103   0.2542120  )

   Crystallographic axes

     site n.     atom                  positions (cryst. coord.)
         1        C      tau(   1) = (  0.2852562  0.3712996  0.4943554  )
         2        C      tau(   2) = (  0.2848900  0.4681613  0.4904832  )
         3        C      tau(   3) = (  0.3168652  0.3400943  0.4916403  )
         4        C      tau(   4) = (  0.3832647  0.3704792  0.5069920  )
         5        C      tau(   5) = (  0.3171102  0.4356912  0.5082649  )
         6        C      tau(   6) = (  0.3826133  0.4675595  0.5302048  )
         7        C      tau(   7) = (  0.3169237  0.5304398  0.4827422  )
         8        C      tau(   8) = (  0.3826452  0.5641035  0.4960574  )
         9        C      tau(   9) = (  0.4174977  0.3402876  0.4989240  )
        10        C      tau(  10) = (  0.4829154  0.3704778  0.5069921  )
        11        C      tau(  11) = (  0.4156562  0.4344372  0.5329759  )
        12        C      tau(  12) = (  0.4803534  0.4619742  0.5531674  )
        13        C      tau(  13) = (  0.4156621  0.5327759  0.5268171  )
        14        C      tau(  14) = (  0.4802011  0.5683458  0.5465233  )
        15        C      tau(  15) = (  0.4180965  0.6281948  0.4805705  )
        16        C      tau(  16) = (  0.4821245  0.6600634  0.4899042  )
        17        C      tau(  17) = (  0.5179288  0.3400964  0.4916413  )
        18        C      tau(  18) = (  0.5817746  0.3712990  0.4943558  )
        19        C      tau(  19) = (  0.5166118  0.4344369  0.5329749  )
        20        C      tau(  20) = (  0.5838687  0.4675593  0.5302051  )
        21        C      tau(  21) = (  0.5904106  0.5683466  0.5465222  )
        22        C      tau(  22) = (  0.5174194  0.6312195  0.5233392  )
        23        C      tau(  23) = (  0.5836246  0.6618829  0.5257137  )
        24        C      tau(  24) = (  0.6164501  0.4356933  0.5082652  )
        25        C      tau(  25) = (  0.6822135  0.4681570  0.4904826  )
        26        C      tau(  26) = (  0.6182027  0.5327760  0.5268144  )
        27        C      tau(  27) = (  0.6835821  0.5641057  0.4960561  )
        28        C      tau(  28) = (  0.6181528  0.6312200  0.5233379  )
        29        C      tau(  29) = (  0.6832474  0.6600594  0.4899038  )
        30        C      tau(  30) = (  0.7145324  0.5304447  0.4827376  )
        31        C      tau(  31) = (  0.7143460  0.6281958  0.4805706  )
        32        H      tau(  32) = (  0.2347291  0.3474963  0.4801816  )
        33        H      tau(  33) = (  0.2343315  0.4427885  0.4773320  )
        34        H      tau(  34) = (  0.2918701  0.2912950  0.4758063  )
        35        H      tau(  35) = (  0.2917565  0.5546840  0.4637321  )
        36        H      tau(  36) = (  0.3929364  0.6520850  0.4574233  )
        37        H      tau(  37) = (  0.5075538  0.7086696  0.4712061  )
        38        H      tau(  38) = (  0.4925038  0.2912949  0.4758062  )
        39        H      tau(  39) = (  0.6077104  0.3474971  0.4801819  )
        40        H      tau(  40) = (  0.7065601  0.4427905  0.4773312  )
        41        H      tau(  41) = (  0.7080367  0.7086720  0.4712050  )
        42        H      tau(  42) = (  0.7647384  0.5546836  0.4637297  )
        43        H      tau(  43) = (  0.7641940  0.6520866  0.4574213  )
        44        H      tau(  44) = (  0.3922337  0.2913860  0.4833047  )
        45        H      tau(  45) = (  0.6087159  0.7104529  0.5072834  )
        46        S      tau(  46) = (  0.5176883  0.5342403  0.6285201  )

     number of k points=    20
                       cart. coord. in units 2pi/alat
        k(    1) = (   0.0000000   0.0000000   0.0000000), wk =   0.0555556
        k(    2) = (   0.0000000   0.1862722   0.0000000), wk =   0.1111111
        k(    3) = (   0.0000000   0.3725444   0.0000000), wk =   0.1111111
        k(    4) = (   0.0000000  -0.5588167   0.0000000), wk =   0.0555556
        k(    5) = (   0.1666667   0.0962250   0.0000000), wk =   0.1111111
        k(    6) = (   0.1666667   0.2824973   0.0000000), wk =   0.1111111
        k(    7) = (   0.1666667   0.4687695   0.0000000), wk =   0.1111111
        k(    8) = (   0.1666667  -0.4625916   0.0000000), wk =   0.1111111
        k(    9) = (   0.1666667  -0.2763194   0.0000000), wk =   0.1111111
        k(   10) = (   0.1666667  -0.0900472   0.0000000), wk =   0.1111111
        k(   11) = (   0.3333333   0.1924501   0.0000000), wk =   0.1111111
        k(   12) = (   0.3333333   0.3787223   0.0000000), wk =   0.1111111
        k(   13) = (   0.3333333   0.5649945   0.0000000), wk =   0.1111111
        k(   14) = (   0.3333333  -0.3663666   0.0000000), wk =   0.1111111
        k(   15) = (   0.3333333  -0.1800943   0.0000000), wk =   0.1111111
        k(   16) = (   0.3333333   0.0061779   0.0000000), wk =   0.1111111
        k(   17) = (  -0.5000000  -0.2886751   0.0000000), wk =   0.0555556
        k(   18) = (  -0.5000000  -0.1024029   0.0000000), wk =   0.1111111
        k(   19) = (  -0.5000000   0.0838693   0.0000000), wk =   0.1111111
        k(   20) = (  -0.5000000  -0.8474918   0.0000000), wk =   0.0555556

                       cryst. coord.
        k(    1) = (   0.0000000   0.0000000   0.0000000), wk =   0.0555556
        k(    2) = (   0.0000000   0.1666667   0.0000000), wk =   0.1111111
        k(    3) = (   0.0000000   0.3333333   0.0000000), wk =   0.1111111
        k(    4) = (   0.0000000  -0.5000000   0.0000000), wk =   0.0555556
        k(    5) = (   0.1666667  -0.0000000   0.0000000), wk =   0.1111111
        k(    6) = (   0.1666667   0.1666667   0.0000000), wk =   0.1111111
        k(    7) = (   0.1666667   0.3333333   0.0000000), wk =   0.1111111
        k(    8) = (   0.1666667  -0.5000000   0.0000000), wk =   0.1111111
        k(    9) = (   0.1666667  -0.3333333   0.0000000), wk =   0.1111111
        k(   10) = (   0.1666667  -0.1666667   0.0000000), wk =   0.1111111
        k(   11) = (   0.3333333  -0.0000000   0.0000000), wk =   0.1111111
        k(   12) = (   0.3333333   0.1666667   0.0000000), wk =   0.1111111
        k(   13) = (   0.3333333   0.3333333   0.0000000), wk =   0.1111111
        k(   14) = (   0.3333333  -0.5000000   0.0000000), wk =   0.1111111
        k(   15) = (   0.3333333  -0.3333333   0.0000000), wk =   0.1111111
        k(   16) = (   0.3333333  -0.1666667   0.0000000), wk =   0.1111111
        k(   17) = (  -0.5000000   0.0000000   0.0000000), wk =   0.0555556
        k(   18) = (  -0.5000000   0.1666667   0.0000000), wk =   0.1111111
        k(   19) = (  -0.5000000   0.3333333   0.0000000), wk =   0.1111111
        k(   20) = (  -0.5000000  -0.5000000   0.0000000), wk =   0.0555556

     Dense  grid:  6554687 G-vectors     FFT dimensions: ( 360, 360, 135)

     Smooth grid:  2317519 G-vectors     FFT dimensions: ( 240, 240,  96)

     Dynamical RAM for                 wfc:     132.60 MB

     Dynamical RAM for     wfc (w. buffer):     132.60 MB

     Dynamical RAM for           str. fact:     100.02 MB

     Dynamical RAM for           local pot:       0.00 MB

     Dynamical RAM for          nlocal pot:     433.18 MB

     Dynamical RAM for                qrad:       5.27 MB

     Dynamical RAM for          rho,v,vnew:     233.50 MB

     Dynamical RAM for           G-vectors:     130.91 MB

     Dynamical RAM for          h,s,v(r/c):      53.39 MB

     Dynamical RAM for          <psi|beta>:       0.40 MB

     Dynamical RAM for                 psi:    1591.26 MB

     Dynamical RAM for                hpsi:    1591.26 MB

     Dynamical RAM for                spsi:    1591.26 MB

     Dynamical RAM for      wfcinit/wfcrot:     265.40 MB

     Dynamical RAM for           addusdens:    7234.53 MB

     Estimated static dynamical RAM per process >       1.36 GB

     Estimated max dynamical RAM per process >       8.42 GB

     Estimated total dynamical RAM >      25.27 GB
     Message from routine read_rhog:
     Conversion: Gamma charge to K charge

     The potential is recalculated from file :
     /home/nihal/Desktop/OtptfGG/s_gqd_1.save/charge-density


     negative rho (up, down):  7.552E-03 0.000E+00
     Starting wfcs are  142 randomized atomic wfcs

     Band Structure Calculation
     Davidson diagonalization with overlap

     Computing kpt #:     1  of    20
     total cpu time spent up to now is      183.8 secs

     Computing kpt #:     2  of    20
     total cpu time spent up to now is      314.3 secs

     Computing kpt #:     3  of    20
     total cpu time spent up to now is      457.6 secs

     Computing kpt #:     4  of    20
     total cpu time spent up to now is      587.2 secs

     Computing kpt #:     5  of    20
     total cpu time spent up to now is      730.1 secs

     Computing kpt #:     6  of    20
     total cpu time spent up to now is      861.6 secs

     Computing kpt #:     7  of    20
     total cpu time spent up to now is      991.7 secs

     Computing kpt #:     8  of    20
     total cpu time spent up to now is     1125.3 secs

     Computing kpt #:     9  of    20
     total cpu time spent up to now is     1253.8 secs

     Computing kpt #:    10  of    20
     total cpu time spent up to now is     1382.4 secs

     Computing kpt #:    11  of    20
     total cpu time spent up to now is     1510.8 secs

     Computing kpt #:    12  of    20
     total cpu time spent up to now is     1652.5 secs

     Computing kpt #:    13  of    20
     total cpu time spent up to now is     1794.3 secs

     Computing kpt #:    14  of    20
     total cpu time spent up to now is     1922.5 secs

     Computing kpt #:    15  of    20
     total cpu time spent up to now is     2039.4 secs

     Computing kpt #:    16  of    20
     total cpu time spent up to now is     2157.1 secs

     Computing kpt #:    17  of    20
     total cpu time spent up to now is     2286.3 secs

     Computing kpt #:    18  of    20
     total cpu time spent up to now is     2417.9 secs

     Computing kpt #:    19  of    20
     total cpu time spent up to now is     2547.0 secs

     Computing kpt #:    20  of    20
     total cpu time spent up to now is     2676.7 secs

     ethr =  6.94E-13,  avg # of iterations = 52.5

     total cpu time spent up to now is     2676.7 secs

     End of band structure calculation

          k = 0.0000 0.0000 0.0000 (289683 PWs)   bands (ev):

   -22.6438 -21.5141 -21.4217 -20.8648 -20.5494 -20.0024 -19.5238 -19.4189
   -18.9306 -18.5060 -18.2709 -18.1466 -17.9692 -17.4969 -17.1038 -16.7147
   -15.7783 -15.3363 -15.3019 -15.2090 -15.0557 -14.6801 -13.7582 -13.6442
   -13.5641 -13.2588 -12.7198 -12.6609 -12.5818 -11.7784 -11.7327 -11.2726
   -11.2483 -11.2057 -10.9879 -10.7095 -10.3408 -10.2378 -10.1398 -10.0504
   -10.0405  -9.8680  -9.7791  -9.7464  -9.5189  -9.3099  -9.2906  -9.1054
    -8.9448  -8.9011  -8.7724  -8.5891  -8.3831  -8.2466  -8.2421  -8.0650
    -7.8778  -7.8155  -7.5966  -7.3367  -7.3150  -7.0430  -7.0090  -6.7743
    -6.6535  -5.9711  -5.9579  -5.6599  -5.2471  -4.7543  -4.4872  -3.3766
    -2.1696  -1.7186  -1.5937  -1.4239  -0.9163  -0.4674  -0.0962   0.0087
     0.1229   0.1306   0.1733   0.2857   0.3198   0.3490   0.4422   0.4886
     0.5129   0.6874

     occupation numbers 
     1.0000   1.0000   1.0000   1.0000   1.0000   1.0000   1.0000   1.0000
     1.0000   1.0000   1.0000   1.0000   1.0000   1.0000   1.0000   1.0000
     1.0000   1.0000   1.0000   1.0000   1.0000   1.0000   1.0000   1.0000
     1.0000   1.0000   1.0000   1.0000   1.0000   1.0000   1.0000   1.0000
     1.0000   1.0000   1.0000   1.0000   1.0000   1.0000   1.0000   1.0000
     1.0000   1.0000   1.0000   1.0000   1.0000   1.0000   1.0000   1.0000
     1.0000   1.0000   1.0000   1.0000   1.0000   1.0000   1.0000   1.0000
     1.0000   1.0000   1.0000   1.0000   1.0000   1.0000   1.0000   1.0000
     1.0000   1.0000   1.0000   1.0000   1.0000   1.0000   1.0000   1.0000
     0.0000   0.0000   0.0000   0.0000   0.0000   0.0000   0.0000   0.0000
     0.0000   0.0000   0.0000   0.0000   0.0000   0.0000   0.0000   0.0000
     0.0000   0.0000

          k = 0.0000 0.1863 0.0000 (289684 PWs)   bands (ev):

   -22.6438 -21.5141 -21.4217 -20.8648 -20.5494 -20.0024 -19.5238 -19.4189
   -18.9306 -18.5060 -18.2709 -18.1466 -17.9692 -17.4969 -17.1038 -16.7147
   -15.7783 -15.3363 -15.3019 -15.2090 -15.0557 -14.6801 -13.7582 -13.6442
   -13.5641 -13.2588 -12.7198 -12.6609 -12.5818 -11.7784 -11.7327 -11.2726
   -11.2483 -11.2057 -10.9879 -10.7095 -10.3408 -10.2378 -10.1398 -10.0504
   -10.0405  -9.8680  -9.7791  -9.7464  -9.5189  -9.3099  -9.2906  -9.1054
    -8.9448  -8.9011  -8.7724  -8.5891  -8.3831  -8.2466  -8.2421  -8.0650
    -7.8778  -7.8155  -7.5966  -7.3367  -7.3150  -7.0430  -7.0090  -6.7743
    -6.6535  -5.9711  -5.9579  -5.6599  -5.2471  -4.7543  -4.4872  -3.3766
    -2.1696  -1.7186  -1.5937  -1.4239  -0.9163  -0.4674  -0.0928   0.0086
     0.1157   0.1194   0.1741   0.2904   0.3337   0.3427   0.4545   0.5129
     0.5194   0.6734

     occupation numbers 
     1.0000   1.0000   1.0000   1.0000   1.0000   1.0000   1.0000   1.0000
     1.0000   1.0000   1.0000   1.0000   1.0000   1.0000   1.0000   1.0000
     1.0000   1.0000   1.0000   1.0000   1.0000   1.0000   1.0000   1.0000
     1.0000   1.0000   1.0000   1.0000   1.0000   1.0000   1.0000   1.0000
     1.0000   1.0000   1.0000   1.0000   1.0000   1.0000   1.0000   1.0000
     1.0000   1.0000   1.0000   1.0000   1.0000   1.0000   1.0000   1.0000
     1.0000   1.0000   1.0000   1.0000   1.0000   1.0000   1.0000   1.0000
     1.0000   1.0000   1.0000   1.0000   1.0000   1.0000   1.0000   1.0000
     1.0000   1.0000   1.0000   1.0000   1.0000   1.0000   1.0000   1.0000
     0.0000   0.0000   0.0000   0.0000   0.0000   0.0000   0.0000   0.0000
     0.0000   0.0000   0.0000   0.0000   0.0000   0.0000   0.0000   0.0000
     0.0000   0.0000

          k = 0.0000 0.3725 0.0000 (289752 PWs)   bands (ev):

   -22.6438 -21.5141 -21.4217 -20.8648 -20.5494 -20.0024 -19.5238 -19.4189
   -18.9306 -18.5060 -18.2709 -18.1466 -17.9692 -17.4969 -17.1038 -16.7147
   -15.7783 -15.3363 -15.3019 -15.2090 -15.0557 -14.6801 -13.7582 -13.6442
   -13.5641 -13.2588 -12.7198 -12.6609 -12.5818 -11.7784 -11.7327 -11.2726
   -11.2483 -11.2057 -10.9879 -10.7095 -10.3408 -10.2378 -10.1398 -10.0504
   -10.0405  -9.8680  -9.7791  -9.7464  -9.5189  -9.3099  -9.2906  -9.1054
    -8.9448  -8.9011  -8.7724  -8.5891  -8.3831  -8.2466  -8.2421  -8.0650
    -7.8778  -7.8155  -7.5966  -7.3367  -7.3150  -7.0430  -7.0090  -6.7743
    -6.6535  -5.9711  -5.9579  -5.6599  -5.2471  -4.7543  -4.4872  -3.3766
    -2.1696  -1.7186  -1.5937  -1.4239  -0.9164  -0.4674  -0.0854   0.0085
     0.0902   0.1129   0.1740   0.2948   0.3362   0.3656   0.4894   0.5128
     0.5808   0.6358

     occupation numbers 
     1.0000   1.0000   1.0000   1.0000   1.0000   1.0000   1.0000   1.0000
     1.0000   1.0000   1.0000   1.0000   1.0000   1.0000   1.0000   1.0000
     1.0000   1.0000   1.0000   1.0000   1.0000   1.0000   1.0000   1.0000
     1.0000   1.0000   1.0000   1.0000   1.0000   1.0000   1.0000   1.0000
     1.0000   1.0000   1.0000   1.0000   1.0000   1.0000   1.0000   1.0000
     1.0000   1.0000   1.0000   1.0000   1.0000   1.0000   1.0000   1.0000
     1.0000   1.0000   1.0000   1.0000   1.0000   1.0000   1.0000   1.0000
     1.0000   1.0000   1.0000   1.0000   1.0000   1.0000   1.0000   1.0000
     1.0000   1.0000   1.0000   1.0000   1.0000   1.0000   1.0000   1.0000
     0.0000   0.0000   0.0000   0.0000   0.0000   0.0000   0.0000   0.0000
     0.0000   0.0000   0.0000   0.0000   0.0000   0.0000   0.0000   0.0000
     0.0000   0.0000

          k = 0.0000-0.5588 0.0000 (289730 PWs)   bands (ev):

   -22.6438 -21.5141 -21.4217 -20.8648 -20.5494 -20.0024 -19.5238 -19.4189
   -18.9306 -18.5060 -18.2709 -18.1466 -17.9692 -17.4969 -17.1038 -16.7147
   -15.7783 -15.3363 -15.3019 -15.2090 -15.0557 -14.6801 -13.7582 -13.6442
   -13.5641 -13.2588 -12.7198 -12.6609 -12.5818 -11.7784 -11.7327 -11.2726
   -11.2483 -11.2057 -10.9879 -10.7095 -10.3408 -10.2378 -10.1398 -10.0504
   -10.0405  -9.8680  -9.7791  -9.7464  -9.5189  -9.3099  -9.2906  -9.1054
    -8.9448  -8.9011  -8.7724  -8.5891  -8.3831  -8.2466  -8.2421  -8.0650
    -7.8778  -7.8155  -7.5966  -7.3367  -7.3150  -7.0430  -7.0090  -6.7743
    -6.6535  -5.9711  -5.9579  -5.6599  -5.2471  -4.7543  -4.4872  -3.3766
    -2.1696  -1.7186  -1.5937  -1.4239  -0.9164  -0.4674  -0.0811   0.0085
     0.0784   0.1100   0.1736   0.2952   0.3349   0.3854   0.5125   0.5239
     0.5688   0.6051

     occupation numbers 
     1.0000   1.0000   1.0000   1.0000   1.0000   1.0000   1.0000   1.0000
     1.0000   1.0000   1.0000   1.0000   1.0000   1.0000   1.0000   1.0000
     1.0000   1.0000   1.0000   1.0000   1.0000   1.0000   1.0000   1.0000
     1.0000   1.0000   1.0000   1.0000   1.0000   1.0000   1.0000   1.0000
     1.0000   1.0000   1.0000   1.0000   1.0000   1.0000   1.0000   1.0000
     1.0000   1.0000   1.0000   1.0000   1.0000   1.0000   1.0000   1.0000
     1.0000   1.0000   1.0000   1.0000   1.0000   1.0000   1.0000   1.0000
     1.0000   1.0000   1.0000   1.0000   1.0000   1.0000   1.0000   1.0000
     1.0000   1.0000   1.0000   1.0000   1.0000   1.0000   1.0000   1.0000
     0.0000   0.0000   0.0000   0.0000   0.0000   0.0000   0.0000   0.0000
     0.0000   0.0000   0.0000   0.0000   0.0000   0.0000   0.0000   0.0000
     0.0000   0.0000

          k = 0.1667 0.0962 0.0000 (289723 PWs)   bands (ev):

   -22.6438 -21.5141 -21.4217 -20.8648 -20.5494 -20.0024 -19.5238 -19.4189
   -18.9306 -18.5060 -18.2709 -18.1466 -17.9692 -17.4969 -17.1038 -16.7147
   -15.7783 -15.3363 -15.3019 -15.2090 -15.0557 -14.6801 -13.7582 -13.6442
   -13.5641 -13.2588 -12.7198 -12.6609 -12.5818 -11.7784 -11.7327 -11.2726
   -11.2483 -11.2057 -10.9879 -10.7095 -10.3408 -10.2378 -10.1398 -10.0504
   -10.0405  -9.8680  -9.7791  -9.7464  -9.5189  -9.3099  -9.2906  -9.1054
    -8.9448  -8.9011  -8.7724  -8.5891  -8.3831  -8.2466  -8.2421  -8.0650
    -7.8778  -7.8155  -7.5966  -7.3367  -7.3150  -7.0430  -7.0090  -6.7743
    -6.6535  -5.9711  -5.9579  -5.6599  -5.2471  -4.7543  -4.4872  -3.3766
    -2.1696  -1.7186  -1.5937  -1.4239  -0.9163  -0.4674  -0.0917   0.0085
     0.1025   0.1266   0.1815   0.2884   0.3141   0.3635   0.4501   0.5065
     0.5284   0.6805

     occupation numbers 
     1.0000   1.0000   1.0000   1.0000   1.0000   1.0000   1.0000   1.0000
     1.0000   1.0000   1.0000   1.0000   1.0000   1.0000   1.0000   1.0000
     1.0000   1.0000   1.0000   1.0000   1.0000   1.0000   1.0000   1.0000
     1.0000   1.0000   1.0000   1.0000   1.0000   1.0000   1.0000   1.0000
     1.0000   1.0000   1.0000   1.0000   1.0000   1.0000   1.0000   1.0000
     1.0000   1.0000   1.0000   1.0000   1.0000   1.0000   1.0000   1.0000
     1.0000   1.0000   1.0000   1.0000   1.0000   1.0000   1.0000   1.0000
     1.0000   1.0000   1.0000   1.0000   1.0000   1.0000   1.0000   1.0000
     1.0000   1.0000   1.0000   1.0000   1.0000   1.0000   1.0000   1.0000
     0.0000   0.0000   0.0000   0.0000   0.0000   0.0000   0.0000   0.0000
     0.0000   0.0000   0.0000   0.0000   0.0000   0.0000   0.0000   0.0000
     0.0000   0.0000

          k = 0.1667 0.2825 0.0000 (289727 PWs)   bands (ev):

   -22.6438 -21.5141 -21.4217 -20.8648 -20.5494 -20.0024 -19.5238 -19.4189
   -18.9306 -18.5060 -18.2709 -18.1466 -17.9692 -17.4969 -17.1038 -16.7147
   -15.7783 -15.3363 -15.3019 -15.2090 -15.0557 -14.6801 -13.7582 -13.6442
   -13.5641 -13.2588 -12.7198 -12.6609 -12.5818 -11.7784 -11.7327 -11.2726
   -11.2483 -11.2057 -10.9879 -10.7095 -10.3408 -10.2378 -10.1398 -10.0504
   -10.0405  -9.8680  -9.7791  -9.7464  -9.5189  -9.3099  -9.2906  -9.1054
    -8.9448  -8.9011  -8.7724  -8.5891  -8.3831  -8.2466  -8.2421  -8.0650
    -7.8778  -7.8155  -7.5966  -7.3367  -7.3150  -7.0430  -7.0090  -6.7743
    -6.6535  -5.9711  -5.9579  -5.6599  -5.2471  -4.7543  -4.4872  -3.3766
    -2.1696  -1.7186  -1.5937  -1.4239  -0.9164  -0.4674  -0.0860   0.0084
     0.0926   0.1113   0.1803   0.2933   0.3384   0.3529   0.4798   0.5098
     0.5742   0.6350

     occupation numbers 
     1.0000   1.0000   1.0000   1.0000   1.0000   1.0000   1.0000   1.0000
     1.0000   1.0000   1.0000   1.0000   1.0000   1.0000   1.0000   1.0000
     1.0000   1.0000   1.0000   1.0000   1.0000   1.0000   1.0000   1.0000
     1.0000   1.0000   1.0000   1.0000   1.0000   1.0000   1.0000   1.0000
     1.0000   1.0000   1.0000   1.0000   1.0000   1.0000   1.0000   1.0000
     1.0000   1.0000   1.0000   1.0000   1.0000   1.0000   1.0000   1.0000
     1.0000   1.0000   1.0000   1.0000   1.0000   1.0000   1.0000   1.0000
     1.0000   1.0000   1.0000   1.0000   1.0000   1.0000   1.0000   1.0000
     1.0000   1.0000   1.0000   1.0000   1.0000   1.0000   1.0000   1.0000
     0.0000   0.0000   0.0000   0.0000   0.0000   0.0000   0.0000   0.0000
     0.0000   0.0000   0.0000   0.0000   0.0000   0.0000   0.0000   0.0000
     0.0000   0.0000

          k = 0.1667 0.4688 0.0000 (289745 PWs)   bands (ev):

   -22.6438 -21.5141 -21.4217 -20.8648 -20.5494 -20.0024 -19.5238 -19.4189
   -18.9306 -18.5060 -18.2709 -18.1466 -17.9692 -17.4969 -17.1038 -16.7147
   -15.7783 -15.3363 -15.3019 -15.2090 -15.0557 -14.6801 -13.7582 -13.6442
   -13.5641 -13.2588 -12.7198 -12.6609 -12.5818 -11.7784 -11.7327 -11.2726
   -11.2483 -11.2057 -10.9879 -10.7095 -10.3408 -10.2378 -10.1398 -10.0504
   -10.0405  -9.8680  -9.7791  -9.7464  -9.5189  -9.3099  -9.2906  -9.1054
    -8.9448  -8.9011  -8.7724  -8.5891  -8.3831  -8.2466  -8.2421  -8.0650
    -7.8778  -7.8155  -7.5966  -7.3367  -7.3150  -7.0430  -7.0090  -6.7743
    -6.6535  -5.9711  -5.9579  -5.6599  -5.2471  -4.7543  -4.4872  -3.3766
    -2.1696  -1.7186  -1.5937  -1.4239  -0.9164  -0.4674  -0.0797   0.0082
     0.0831   0.0966   0.1796   0.3034   0.3451   0.3634   0.5048   0.5154
     0.5927   0.6203

     occupation numbers 
     1.0000   1.0000   1.0000   1.0000   1.0000   1.0000   1.0000   1.0000
     1.0000   1.0000   1.0000   1.0000   1.0000   1.0000   1.0000   1.0000
     1.0000   1.0000   1.0000   1.0000   1.0000   1.0000   1.0000   1.0000
     1.0000   1.0000   1.0000   1.0000   1.0000   1.0000   1.0000   1.0000
     1.0000   1.0000   1.0000   1.0000   1.0000   1.0000   1.0000   1.0000
     1.0000   1.0000   1.0000   1.0000   1.0000   1.0000   1.0000   1.0000
     1.0000   1.0000   1.0000   1.0000   1.0000   1.0000   1.0000   1.0000
     1.0000   1.0000   1.0000   1.0000   1.0000   1.0000   1.0000   1.0000
     1.0000   1.0000   1.0000   1.0000   1.0000   1.0000   1.0000   1.0000
     0.0000   0.0000   0.0000   0.0000   0.0000   0.0000   0.0000   0.0000
     0.0000   0.0000   0.0000   0.0000   0.0000   0.0000   0.0000   0.0000
     0.0000   0.0000

          k = 0.1667-0.4626 0.0000 (289665 PWs)   bands (ev):

   -22.6438 -21.5141 -21.4217 -20.8648 -20.5494 -20.0024 -19.5238 -19.4189
   -18.9306 -18.5060 -18.2709 -18.1466 -17.9692 -17.4969 -17.1038 -16.7147
   -15.7783 -15.3363 -15.3019 -15.2090 -15.0557 -14.6801 -13.7582 -13.6442
   -13.5641 -13.2588 -12.7198 -12.6609 -12.5818 -11.7784 -11.7327 -11.2726
   -11.2483 -11.2057 -10.9879 -10.7095 -10.3408 -10.2378 -10.1398 -10.0504
   -10.0405  -9.8680  -9.7791  -9.7464  -9.5189  -9.3099  -9.2906  -9.1054
    -8.9448  -8.9011  -8.7724  -8.5891  -8.3831  -8.2466  -8.2421  -8.0650
    -7.8778  -7.8155  -7.5966  -7.3367  -7.3150  -7.0430  -7.0090  -6.7743
    -6.6535  -5.9711  -5.9579  -5.6599  -5.2471  -4.7543  -4.4872  -3.3766
    -2.1696  -1.7186  -1.5937  -1.4239  -0.9164  -0.4674  -0.0800   0.0082
     0.0839   0.0961   0.1797   0.3041   0.3455   0.3647   0.5043   0.5142
     0.5825   0.6263

     occupation numbers 
     1.0000   1.0000   1.0000   1.0000   1.0000   1.0000   1.0000   1.0000
     1.0000   1.0000   1.0000   1.0000   1.0000   1.0000   1.0000   1.0000
     1.0000   1.0000   1.0000   1.0000   1.0000   1.0000   1.0000   1.0000
     1.0000   1.0000   1.0000   1.0000   1.0000   1.0000   1.0000   1.0000
     1.0000   1.0000   1.0000   1.0000   1.0000   1.0000   1.0000   1.0000
     1.0000   1.0000   1.0000   1.0000   1.0000   1.0000   1.0000   1.0000
     1.0000   1.0000   1.0000   1.0000   1.0000   1.0000   1.0000   1.0000
     1.0000   1.0000   1.0000   1.0000   1.0000   1.0000   1.0000   1.0000
     1.0000   1.0000   1.0000   1.0000   1.0000   1.0000   1.0000   1.0000
     0.0000   0.0000   0.0000   0.0000   0.0000   0.0000   0.0000   0.0000
     0.0000   0.0000   0.0000   0.0000   0.0000   0.0000   0.0000   0.0000
     0.0000   0.0000

          k = 0.1667-0.2763 0.0000 (289684 PWs)   bands (ev):

   -22.6438 -21.5141 -21.4217 -20.8648 -20.5494 -20.0024 -19.5238 -19.4189
   -18.9306 -18.5060 -18.2709 -18.1466 -17.9692 -17.4969 -17.1038 -16.7147
   -15.7783 -15.3363 -15.3019 -15.2090 -15.0557 -14.6801 -13.7582 -13.6442
   -13.5641 -13.2588 -12.7198 -12.6609 -12.5818 -11.7784 -11.7327 -11.2726
   -11.2483 -11.2057 -10.9879 -10.7095 -10.3408 -10.2378 -10.1398 -10.0504
   -10.0405  -9.8680  -9.7791  -9.7464  -9.5189  -9.3099  -9.2906  -9.1054
    -8.9448  -8.9011  -8.7724  -8.5891  -8.3831  -8.2466  -8.2421  -8.0650
    -7.8778  -7.8155  -7.5966  -7.3367  -7.3150  -7.0430  -7.0090  -6.7743
    -6.6535  -5.9711  -5.9579  -5.6599  -5.2471  -4.7543  -4.4872  -3.3766
    -2.1696  -1.7186  -1.5937  -1.4239  -0.9164  -0.4674  -0.0864   0.0084
     0.0925   0.1122   0.1803   0.2938   0.3405   0.3539   0.4776   0.5098
     0.5691   0.6225

     occupation numbers 
     1.0000   1.0000   1.0000   1.0000   1.0000   1.0000   1.0000   1.0000
     1.0000   1.0000   1.0000   1.0000   1.0000   1.0000   1.0000   1.0000
     1.0000   1.0000   1.0000   1.0000   1.0000   1.0000   1.0000   1.0000
     1.0000   1.0000   1.0000   1.0000   1.0000   1.0000   1.0000   1.0000
     1.0000   1.0000   1.0000   1.0000   1.0000   1.0000   1.0000   1.0000
     1.0000   1.0000   1.0000   1.0000   1.0000   1.0000   1.0000   1.0000
     1.0000   1.0000   1.0000   1.0000   1.0000   1.0000   1.0000   1.0000
     1.0000   1.0000   1.0000   1.0000   1.0000   1.0000   1.0000   1.0000
     1.0000   1.0000   1.0000   1.0000   1.0000   1.0000   1.0000   1.0000
     0.0000   0.0000   0.0000   0.0000   0.0000   0.0000   0.0000   0.0000
     0.0000   0.0000   0.0000   0.0000   0.0000   0.0000   0.0000   0.0000
     0.0000   0.0000

          k = 0.1667-0.0900 0.0000 (289757 PWs)   bands (ev):

   -22.6438 -21.5141 -21.4217 -20.8648 -20.5494 -20.0024 -19.5238 -19.4189
   -18.9306 -18.5060 -18.2709 -18.1466 -17.9692 -17.4969 -17.1038 -16.7147
   -15.7783 -15.3363 -15.3019 -15.2090 -15.0557 -14.6801 -13.7582 -13.6442
   -13.5641 -13.2588 -12.7198 -12.6609 -12.5818 -11.7784 -11.7327 -11.2726
   -11.2483 -11.2057 -10.9879 -10.7095 -10.3408 -10.2378 -10.1398 -10.0504
   -10.0405  -9.8680  -9.7791  -9.7464  -9.5189  -9.3099  -9.2906  -9.1054
    -8.9448  -8.9011  -8.7724  -8.5891  -8.3831  -8.2466  -8.2421  -8.0650
    -7.8778  -7.8155  -7.5966  -7.3367  -7.3150  -7.0430  -7.0090  -6.7743
    -6.6535  -5.9711  -5.9579  -5.6599  -5.2471  -4.7543  -4.4872  -3.3766
    -2.1696  -1.7186  -1.5937  -1.4239  -0.9163  -0.4674  -0.0918   0.0085
     0.1019   0.1279   0.1815   0.2873   0.3158   0.3644   0.4494   0.5062
     0.5261   0.6760

     occupation numbers 
     1.0000   1.0000   1.0000   1.0000   1.0000   1.0000   1.0000   1.0000
     1.0000   1.0000   1.0000   1.0000   1.0000   1.0000   1.0000   1.0000
     1.0000   1.0000   1.0000   1.0000   1.0000   1.0000   1.0000   1.0000
     1.0000   1.0000   1.0000   1.0000   1.0000   1.0000   1.0000   1.0000
     1.0000   1.0000   1.0000   1.0000   1.0000   1.0000   1.0000   1.0000
     1.0000   1.0000   1.0000   1.0000   1.0000   1.0000   1.0000   1.0000
     1.0000   1.0000   1.0000   1.0000   1.0000   1.0000   1.0000   1.0000
     1.0000   1.0000   1.0000   1.0000   1.0000   1.0000   1.0000   1.0000
     1.0000   1.0000   1.0000   1.0000   1.0000   1.0000   1.0000   1.0000
     0.0000   0.0000   0.0000   0.0000   0.0000   0.0000   0.0000   0.0000
     0.0000   0.0000   0.0000   0.0000   0.0000   0.0000   0.0000   0.0000
     0.0000   0.0000

          k = 0.3333 0.1925 0.0000 (289710 PWs)   bands (ev):

   -22.6438 -21.5141 -21.4217 -20.8648 -20.5494 -20.0024 -19.5238 -19.4189
   -18.9306 -18.5060 -18.2709 -18.1466 -17.9692 -17.4969 -17.1038 -16.7147
   -15.7783 -15.3363 -15.3019 -15.2090 -15.0557 -14.6801 -13.7582 -13.6442
   -13.5641 -13.2588 -12.7198 -12.6609 -12.5818 -11.7784 -11.7327 -11.2726
   -11.2483 -11.2057 -10.9879 -10.7095 -10.3408 -10.2378 -10.1398 -10.0504
   -10.0405  -9.8680  -9.7791  -9.7464  -9.5189  -9.3099  -9.2906  -9.1054
    -8.9448  -8.9011  -8.7724  -8.5891  -8.3831  -8.2466  -8.2421  -8.0650
    -7.8778  -7.8155  -7.5966  -7.3367  -7.3150  -7.0430  -7.0090  -6.7743
    -6.6535  -5.9711  -5.9579  -5.6599  -5.2471  -4.7543  -4.4872  -3.3766
    -2.1696  -1.7186  -1.5937  -1.4239  -0.9164  -0.4674  -0.0810   0.0079
     0.0714   0.1191   0.1882   0.2785   0.3236   0.3994   0.4764   0.4983
     0.5947   0.6392

     occupation numbers 
     1.0000   1.0000   1.0000   1.0000   1.0000   1.0000   1.0000   1.0000
     1.0000   1.0000   1.0000   1.0000   1.0000   1.0000   1.0000   1.0000
     1.0000   1.0000   1.0000   1.0000   1.0000   1.0000   1.0000   1.0000
     1.0000   1.0000   1.0000   1.0000   1.0000   1.0000   1.0000   1.0000
     1.0000   1.0000   1.0000   1.0000   1.0000   1.0000   1.0000   1.0000
     1.0000   1.0000   1.0000   1.0000   1.0000   1.0000   1.0000   1.0000
     1.0000   1.0000   1.0000   1.0000   1.0000   1.0000   1.0000   1.0000
     1.0000   1.0000   1.0000   1.0000   1.0000   1.0000   1.0000   1.0000
     1.0000   1.0000   1.0000   1.0000   1.0000   1.0000   1.0000   1.0000
     0.0000   0.0000   0.0000   0.0000   0.0000   0.0000   0.0000   0.0000
     0.0000   0.0000   0.0000   0.0000   0.0000   0.0000   0.0000   0.0000
     0.0000   0.0000

          k = 0.3333 0.3787 0.0000 (289753 PWs)   bands (ev):

   -22.6438 -21.5141 -21.4217 -20.8648 -20.5494 -20.0024 -19.5238 -19.4189
   -18.9306 -18.5060 -18.2709 -18.1466 -17.9692 -17.4969 -17.1038 -16.7147
   -15.7783 -15.3363 -15.3019 -15.2090 -15.0557 -14.6801 -13.7582 -13.6442
   -13.5641 -13.2588 -12.7198 -12.6609 -12.5818 -11.7784 -11.7327 -11.2726
   -11.2483 -11.2057 -10.9879 -10.7095 -10.3408 -10.2378 -10.1398 -10.0504
   -10.0405  -9.8680  -9.7791  -9.7464  -9.5189  -9.3099  -9.2906  -9.1054
    -8.9448  -8.9011  -8.7724  -8.5891  -8.3831  -8.2466  -8.2421  -8.0650
    -7.8778  -7.8155  -7.5966  -7.3367  -7.3150  -7.0430  -7.0090  -6.7743
    -6.6535  -5.9711  -5.9579  -5.6599  -5.2471  -4.7543  -4.4872  -3.3766
    -2.1696  -1.7186  -1.5937  -1.4239  -0.9164  -0.4674  -0.0764   0.0077
     0.0671   0.1055   0.1866   0.2905   0.3350   0.3915   0.4937   0.5078
     0.5880   0.6530

     occupation numbers 
     1.0000   1.0000   1.0000   1.0000   1.0000   1.0000   1.0000   1.0000
     1.0000   1.0000   1.0000   1.0000   1.0000   1.0000   1.0000   1.0000
     1.0000   1.0000   1.0000   1.0000   1.0000   1.0000   1.0000   1.0000
     1.0000   1.0000   1.0000   1.0000   1.0000   1.0000   1.0000   1.0000
     1.0000   1.0000   1.0000   1.0000   1.0000   1.0000   1.0000   1.0000
     1.0000   1.0000   1.0000   1.0000   1.0000   1.0000   1.0000   1.0000
     1.0000   1.0000   1.0000   1.0000   1.0000   1.0000   1.0000   1.0000
     1.0000   1.0000   1.0000   1.0000   1.0000   1.0000   1.0000   1.0000
     1.0000   1.0000   1.0000   1.0000   1.0000   1.0000   1.0000   1.0000
     0.0000   0.0000   0.0000   0.0000   0.0000   0.0000   0.0000   0.0000
     0.0000   0.0000   0.0000   0.0000   0.0000   0.0000   0.0000   0.0000
     0.0000   0.0000

          k = 0.3333 0.5650 0.0000 (289736 PWs)   bands (ev):

   -22.6438 -21.5141 -21.4217 -20.8648 -20.5494 -20.0024 -19.5238 -19.4189
   -18.9306 -18.5060 -18.2709 -18.1466 -17.9692 -17.4969 -17.1038 -16.7147
   -15.7783 -15.3363 -15.3019 -15.2090 -15.0557 -14.6801 -13.7582 -13.6442
   -13.5641 -13.2588 -12.7198 -12.6609 -12.5818 -11.7784 -11.7327 -11.2726
   -11.2483 -11.2057 -10.9879 -10.7095 -10.3408 -10.2378 -10.1398 -10.0504
   -10.0405  -9.8680  -9.7791  -9.7464  -9.5189  -9.3099  -9.2906  -9.1054
    -8.9448  -8.9011  -8.7724  -8.5891  -8.3831  -8.2466  -8.2421  -8.0650
    -7.8778  -7.8155  -7.5966  -7.3367  -7.3150  -7.0430  -7.0090  -6.7743
    -6.6535  -5.9711  -5.9579  -5.6599  -5.2471  -4.7543  -4.4872  -3.3766
    -2.1696  -1.7186  -1.5937  -1.4239  -0.9164  -0.4674  -0.0744   0.0076
     0.0684   0.0946   0.1862   0.3097   0.3339   0.3869   0.4865   0.5041
     0.6073   0.6679

     occupation numbers 
     1.0000   1.0000   1.0000   1.0000   1.0000   1.0000   1.0000   1.0000
     1.0000   1.0000   1.0000   1.0000   1.0000   1.0000   1.0000   1.0000
     1.0000   1.0000   1.0000   1.0000   1.0000   1.0000   1.0000   1.0000
     1.0000   1.0000   1.0000   1.0000   1.0000   1.0000   1.0000   1.0000
     1.0000   1.0000   1.0000   1.0000   1.0000   1.0000   1.0000   1.0000
     1.0000   1.0000   1.0000   1.0000   1.0000   1.0000   1.0000   1.0000
     1.0000   1.0000   1.0000   1.0000   1.0000   1.0000   1.0000   1.0000
     1.0000   1.0000   1.0000   1.0000   1.0000   1.0000   1.0000   1.0000
     1.0000   1.0000   1.0000   1.0000   1.0000   1.0000   1.0000   1.0000
     0.0000   0.0000   0.0000   0.0000   0.0000   0.0000   0.0000   0.0000
     0.0000   0.0000   0.0000   0.0000   0.0000   0.0000   0.0000   0.0000
     0.0000   0.0000

          k = 0.3333-0.3664 0.0000 (289726 PWs)   bands (ev):

   -22.6438 -21.5141 -21.4217 -20.8648 -20.5494 -20.0024 -19.5238 -19.4189
   -18.9306 -18.5060 -18.2709 -18.1466 -17.9692 -17.4969 -17.1038 -16.7147
   -15.7783 -15.3363 -15.3019 -15.2090 -15.0557 -14.6801 -13.7582 -13.6442
   -13.5641 -13.2588 -12.7198 -12.6609 -12.5818 -11.7784 -11.7327 -11.2726
   -11.2483 -11.2057 -10.9879 -10.7095 -10.3408 -10.2378 -10.1398 -10.0504
   -10.0405  -9.8680  -9.7791  -9.7464  -9.5189  -9.3099  -9.2906  -9.1054
    -8.9448  -8.9011  -8.7724  -8.5891  -8.3831  -8.2466  -8.2421  -8.0650
    -7.8778  -7.8155  -7.5966  -7.3367  -7.3150  -7.0430  -7.0090  -6.7743
    -6.6535  -5.9711  -5.9579  -5.6599  -5.2471  -4.7543  -4.4872  -3.3766
    -2.1696  -1.7186  -1.5937  -1.4239  -0.9164  -0.4674  -0.0771   0.0077
     0.0667   0.1074   0.1866   0.2924   0.3359   0.3920   0.4927   0.5057
     0.5787   0.6480

     occupation numbers 
     1.0000   1.0000   1.0000   1.0000   1.0000   1.0000   1.0000   1.0000
     1.0000   1.0000   1.0000   1.0000   1.0000   1.0000   1.0000   1.0000
     1.0000   1.0000   1.0000   1.0000   1.0000   1.0000   1.0000   1.0000
     1.0000   1.0000   1.0000   1.0000   1.0000   1.0000   1.0000   1.0000
     1.0000   1.0000   1.0000   1.0000   1.0000   1.0000   1.0000   1.0000
     1.0000   1.0000   1.0000   1.0000   1.0000   1.0000   1.0000   1.0000
     1.0000   1.0000   1.0000   1.0000   1.0000   1.0000   1.0000   1.0000
     1.0000   1.0000   1.0000   1.0000   1.0000   1.0000   1.0000   1.0000
     1.0000   1.0000   1.0000   1.0000   1.0000   1.0000   1.0000   1.0000
     0.0000   0.0000   0.0000   0.0000   0.0000   0.0000   0.0000   0.0000
     0.0000   0.0000   0.0000   0.0000   0.0000   0.0000   0.0000   0.0000
     0.0000   0.0000

          k = 0.3333-0.1801 0.0000 (289721 PWs)   bands (ev):

   -22.6438 -21.5141 -21.4217 -20.8648 -20.5494 -20.0024 -19.5238 -19.4189
   -18.9306 -18.5060 -18.2709 -18.1466 -17.9692 -17.4969 -17.1038 -16.7147
   -15.7783 -15.3363 -15.3019 -15.2090 -15.0557 -14.6801 -13.7582 -13.6442
   -13.5641 -13.2588 -12.7198 -12.6609 -12.5818 -11.7784 -11.7327 -11.2726
   -11.2483 -11.2057 -10.9879 -10.7095 -10.3408 -10.2378 -10.1398 -10.0504
   -10.0405  -9.8680  -9.7791  -9.7464  -9.5189  -9.3099  -9.2906  -9.1054
    -8.9448  -8.9011  -8.7724  -8.5891  -8.3831  -8.2466  -8.2421  -8.0650
    -7.8778  -7.8155  -7.5966  -7.3367  -7.3150  -7.0430  -7.0090  -6.7743
    -6.6535  -5.9711  -5.9579  -5.6599  -5.2471  -4.7543  -4.4872  -3.3766
    -2.1696  -1.7186  -1.5937  -1.4239  -0.9164  -0.4674  -0.0817   0.0079
     0.0707   0.1217   0.1883   0.2793   0.3243   0.4007   0.4740   0.4984
     0.5866   0.6323

     occupation numbers 
     1.0000   1.0000   1.0000   1.0000   1.0000   1.0000   1.0000   1.0000
     1.0000   1.0000   1.0000   1.0000   1.0000   1.0000   1.0000   1.0000
     1.0000   1.0000   1.0000   1.0000   1.0000   1.0000   1.0000   1.0000
     1.0000   1.0000   1.0000   1.0000   1.0000   1.0000   1.0000   1.0000
     1.0000   1.0000   1.0000   1.0000   1.0000   1.0000   1.0000   1.0000
     1.0000   1.0000   1.0000   1.0000   1.0000   1.0000   1.0000   1.0000
     1.0000   1.0000   1.0000   1.0000   1.0000   1.0000   1.0000   1.0000
     1.0000   1.0000   1.0000   1.0000   1.0000   1.0000   1.0000   1.0000
     1.0000   1.0000   1.0000   1.0000   1.0000   1.0000   1.0000   1.0000
     0.0000   0.0000   0.0000   0.0000   0.0000   0.0000   0.0000   0.0000
     0.0000   0.0000   0.0000   0.0000   0.0000   0.0000   0.0000   0.0000
     0.0000   0.0000

          k = 0.3333 0.0062 0.0000 (289712 PWs)   bands (ev):

   -22.6438 -21.5141 -21.4217 -20.8648 -20.5494 -20.0024 -19.5238 -19.4189
   -18.9306 -18.5060 -18.2709 -18.1466 -17.9692 -17.4969 -17.1038 -16.7147
   -15.7783 -15.3363 -15.3019 -15.2090 -15.0557 -14.6801 -13.7582 -13.6442
   -13.5641 -13.2588 -12.7198 -12.6609 -12.5818 -11.7784 -11.7327 -11.2726
   -11.2483 -11.2057 -10.9879 -10.7095 -10.3408 -10.2378 -10.1398 -10.0504
   -10.0405  -9.8680  -9.7791  -9.7464  -9.5189  -9.3099  -9.2906  -9.1054
    -8.9448  -8.9011  -8.7724  -8.5891  -8.3831  -8.2466  -8.2421  -8.0650
    -7.8778  -7.8155  -7.5966  -7.3367  -7.3150  -7.0430  -7.0090  -6.7743
    -6.6535  -5.9711  -5.9579  -5.6599  -5.2471  -4.7543  -4.4872  -3.3766
    -2.1696  -1.7186  -1.5937  -1.4239  -0.9164  -0.4674  -0.0835   0.0081
     0.0757   0.1223   0.1894   0.2964   0.2987   0.4035   0.4576   0.4970
     0.5816   0.6675

     occupation numbers 
     1.0000   1.0000   1.0000   1.0000   1.0000   1.0000   1.0000   1.0000
     1.0000   1.0000   1.0000   1.0000   1.0000   1.0000   1.0000   1.0000
     1.0000   1.0000   1.0000   1.0000   1.0000   1.0000   1.0000   1.0000
     1.0000   1.0000   1.0000   1.0000   1.0000   1.0000   1.0000   1.0000
     1.0000   1.0000   1.0000   1.0000   1.0000   1.0000   1.0000   1.0000
     1.0000   1.0000   1.0000   1.0000   1.0000   1.0000   1.0000   1.0000
     1.0000   1.0000   1.0000   1.0000   1.0000   1.0000   1.0000   1.0000
     1.0000   1.0000   1.0000   1.0000   1.0000   1.0000   1.0000   1.0000
     1.0000   1.0000   1.0000   1.0000   1.0000   1.0000   1.0000   1.0000
     0.0000   0.0000   0.0000   0.0000   0.0000   0.0000   0.0000   0.0000
     0.0000   0.0000   0.0000   0.0000   0.0000   0.0000   0.0000   0.0000
     0.0000   0.0000

          k =-0.5000-0.2887 0.0000 (289812 PWs)   bands (ev):

   -22.6438 -21.5141 -21.4217 -20.8648 -20.5494 -20.0024 -19.5238 -19.4189
   -18.9306 -18.5060 -18.2709 -18.1466 -17.9692 -17.4969 -17.1038 -16.7147
   -15.7783 -15.3363 -15.3019 -15.2090 -15.0557 -14.6801 -13.7582 -13.6442
   -13.5641 -13.2588 -12.7198 -12.6609 -12.5818 -11.7784 -11.7327 -11.2726
   -11.2483 -11.2057 -10.9879 -10.7095 -10.3408 -10.2378 -10.1398 -10.0504
   -10.0405  -9.8680  -9.7791  -9.7464  -9.5189  -9.3099  -9.2906  -9.1054
    -8.9448  -8.9011  -8.7724  -8.5891  -8.3831  -8.2466  -8.2421  -8.0650
    -7.8778  -7.8155  -7.5966  -7.3367  -7.3150  -7.0430  -7.0090  -6.7743
    -6.6535  -5.9711  -5.9579  -5.6599  -5.2471  -4.7543  -4.4872  -3.3766
    -2.1696  -1.7186  -1.5937  -1.4239  -0.9164  -0.4674  -0.0745   0.0074
     0.0571   0.1157   0.1899   0.2722   0.3304   0.4296   0.4798   0.5041
     0.5809   0.6414

     occupation numbers 
     1.0000   1.0000   1.0000   1.0000   1.0000   1.0000   1.0000   1.0000
     1.0000   1.0000   1.0000   1.0000   1.0000   1.0000   1.0000   1.0000
     1.0000   1.0000   1.0000   1.0000   1.0000   1.0000   1.0000   1.0000
     1.0000   1.0000   1.0000   1.0000   1.0000   1.0000   1.0000   1.0000
     1.0000   1.0000   1.0000   1.0000   1.0000   1.0000   1.0000   1.0000
     1.0000   1.0000   1.0000   1.0000   1.0000   1.0000   1.0000   1.0000
     1.0000   1.0000   1.0000   1.0000   1.0000   1.0000   1.0000   1.0000
     1.0000   1.0000   1.0000   1.0000   1.0000   1.0000   1.0000   1.0000
     1.0000   1.0000   1.0000   1.0000   1.0000   1.0000   1.0000   1.0000
     0.0000   0.0000   0.0000   0.0000   0.0000   0.0000   0.0000   0.0000
     0.0000   0.0000   0.0000   0.0000   0.0000   0.0000   0.0000   0.0000
     0.0000   0.0000

          k =-0.5000-0.1024 0.0000 (289763 PWs)   bands (ev):

   -22.6438 -21.5141 -21.4217 -20.8648 -20.5494 -20.0024 -19.5238 -19.4189
   -18.9306 -18.5060 -18.2709 -18.1466 -17.9692 -17.4969 -17.1038 -16.7147
   -15.7783 -15.3363 -15.3019 -15.2090 -15.0557 -14.6801 -13.7582 -13.6442
   -13.5641 -13.2588 -12.7198 -12.6609 -12.5818 -11.7784 -11.7327 -11.2726
   -11.2483 -11.2057 -10.9879 -10.7095 -10.3408 -10.2378 -10.1398 -10.0504
   -10.0405  -9.8680  -9.7791  -9.7464  -9.5189  -9.3099  -9.2906  -9.1054
    -8.9448  -8.9011  -8.7724  -8.5891  -8.3831  -8.2466  -8.2421  -8.0650
    -7.8778  -7.8155  -7.5966  -7.3367  -7.3150  -7.0430  -7.0090  -6.7743
    -6.6535  -5.9711  -5.9579  -5.6599  -5.2471  -4.7543  -4.4872  -3.3766
    -2.1696  -1.7186  -1.5937  -1.4239  -0.9164  -0.4674  -0.0749   0.0075
     0.0599   0.1105   0.1898   0.2896   0.3199   0.4246   0.4797   0.4857
     0.6170   0.6452

     occupation numbers 
     1.0000   1.0000   1.0000   1.0000   1.0000   1.0000   1.0000   1.0000
     1.0000   1.0000   1.0000   1.0000   1.0000   1.0000   1.0000   1.0000
     1.0000   1.0000   1.0000   1.0000   1.0000   1.0000   1.0000   1.0000
     1.0000   1.0000   1.0000   1.0000   1.0000   1.0000   1.0000   1.0000
     1.0000   1.0000   1.0000   1.0000   1.0000   1.0000   1.0000   1.0000
     1.0000   1.0000   1.0000   1.0000   1.0000   1.0000   1.0000   1.0000
     1.0000   1.0000   1.0000   1.0000   1.0000   1.0000   1.0000   1.0000
     1.0000   1.0000   1.0000   1.0000   1.0000   1.0000   1.0000   1.0000
     1.0000   1.0000   1.0000   1.0000   1.0000   1.0000   1.0000   1.0000
     0.0000   0.0000   0.0000   0.0000   0.0000   0.0000   0.0000   0.0000
     0.0000   0.0000   0.0000   0.0000   0.0000   0.0000   0.0000   0.0000
     0.0000   0.0000

          k =-0.5000 0.0839 0.0000 (289745 PWs)   bands (ev):

   -22.6438 -21.5141 -21.4217 -20.8648 -20.5494 -20.0024 -19.5238 -19.4189
   -18.9306 -18.5060 -18.2709 -18.1466 -17.9692 -17.4969 -17.1038 -16.7147
   -15.7783 -15.3363 -15.3019 -15.2090 -15.0557 -14.6801 -13.7582 -13.6442
   -13.5641 -13.2588 -12.7198 -12.6609 -12.5818 -11.7784 -11.7327 -11.2726
   -11.2483 -11.2057 -10.9879 -10.7095 -10.3408 -10.2378 -10.1398 -10.0504
   -10.0405  -9.8680  -9.7791  -9.7464  -9.5189  -9.3099  -9.2906  -9.1054
    -8.9448  -8.9011  -8.7724  -8.5891  -8.3831  -8.2466  -8.2421  -8.0650
    -7.8778  -7.8155  -7.5966  -7.3367  -7.3150  -7.0430  -7.0090  -6.7743
    -6.6535  -5.9711  -5.9579  -5.6599  -5.2471  -4.7543  -4.4872  -3.3766
    -2.1696  -1.7186  -1.5937  -1.4239  -0.9164  -0.4674  -0.0754   0.0074
     0.0595   0.1121   0.1899   0.2913   0.3193   0.4243   0.4800   0.4845
     0.6095   0.6472

     occupation numbers 
     1.0000   1.0000   1.0000   1.0000   1.0000   1.0000   1.0000   1.0000
     1.0000   1.0000   1.0000   1.0000   1.0000   1.0000   1.0000   1.0000
     1.0000   1.0000   1.0000   1.0000   1.0000   1.0000   1.0000   1.0000
     1.0000   1.0000   1.0000   1.0000   1.0000   1.0000   1.0000   1.0000
     1.0000   1.0000   1.0000   1.0000   1.0000   1.0000   1.0000   1.0000
     1.0000   1.0000   1.0000   1.0000   1.0000   1.0000   1.0000   1.0000
     1.0000   1.0000   1.0000   1.0000   1.0000   1.0000   1.0000   1.0000
     1.0000   1.0000   1.0000   1.0000   1.0000   1.0000   1.0000   1.0000
     1.0000   1.0000   1.0000   1.0000   1.0000   1.0000   1.0000   1.0000
     0.0000   0.0000   0.0000   0.0000   0.0000   0.0000   0.0000   0.0000
     0.0000   0.0000   0.0000   0.0000   0.0000   0.0000   0.0000   0.0000
     0.0000   0.0000

          k =-0.5000-0.8475 0.0000 (289684 PWs)   bands (ev):

   -22.6438 -21.5141 -21.4217 -20.8648 -20.5494 -20.0024 -19.5238 -19.4189
   -18.9306 -18.5060 -18.2709 -18.1466 -17.9692 -17.4969 -17.1038 -16.7147
   -15.7783 -15.3363 -15.3019 -15.2090 -15.0557 -14.6801 -13.7582 -13.6442
   -13.5641 -13.2588 -12.7198 -12.6609 -12.5818 -11.7784 -11.7327 -11.2726
   -11.2483 -11.2057 -10.9879 -10.7095 -10.3408 -10.2378 -10.1398 -10.0504
   -10.0405  -9.8680  -9.7791  -9.7464  -9.5189  -9.3099  -9.2906  -9.1054
    -8.9448  -8.9011  -8.7724  -8.5891  -8.3831  -8.2466  -8.2421  -8.0650
    -7.8778  -7.8155  -7.5966  -7.3367  -7.3150  -7.0430  -7.0090  -6.7743
    -6.6535  -5.9711  -5.9579  -5.6599  -5.2471  -4.7543  -4.4872  -3.3766
    -2.1696  -1.7186  -1.5937  -1.4239  -0.9164  -0.4674  -0.0755   0.0073
     0.0566   0.1188   0.1900   0.2739   0.3307   0.4298   0.4809   0.5008
     0.5705   0.6438

     occupation numbers 
     1.0000   1.0000   1.0000   1.0000   1.0000   1.0000   1.0000   1.0000
     1.0000   1.0000   1.0000   1.0000   1.0000   1.0000   1.0000   1.0000
     1.0000   1.0000   1.0000   1.0000   1.0000   1.0000   1.0000   1.0000
     1.0000   1.0000   1.0000   1.0000   1.0000   1.0000   1.0000   1.0000
     1.0000   1.0000   1.0000   1.0000   1.0000   1.0000   1.0000   1.0000
     1.0000   1.0000   1.0000   1.0000   1.0000   1.0000   1.0000   1.0000
     1.0000   1.0000   1.0000   1.0000   1.0000   1.0000   1.0000   1.0000
     1.0000   1.0000   1.0000   1.0000   1.0000   1.0000   1.0000   1.0000
     1.0000   1.0000   1.0000   1.0000   1.0000   1.0000   1.0000   1.0000
     0.0000   0.0000   0.0000   0.0000   0.0000   0.0000   0.0000   0.0000
     0.0000   0.0000   0.0000   0.0000   0.0000   0.0000   0.0000   0.0000
     0.0000   0.0000

     highest occupied, lowest unoccupied level (ev):    -3.3766   -2.1696

     Writing all to output data dir /home/nihal/Desktop/OtptfGG/s_gqd_1.save/ :
     XML data file, pseudopotentials, collected wavefunctions

     init_run     :      8.86s CPU     13.04s WALL (       1 calls)
     electrons    :   2572.96s CPU   2663.56s WALL (       1 calls)

     Called by init_run:
     wfcinit      :      0.00s CPU      0.00s WALL (       1 calls)
     wfcinit:atom :      0.81s CPU      2.16s WALL (      20 calls)
     wfcinit:wfcr :    139.51s CPU    143.17s WALL (      20 calls)
     potinit      :      2.19s CPU      3.04s WALL (       1 calls)
     hinit0       :      1.11s CPU      1.32s WALL (       1 calls)

     Called by electrons:
     c_bands      :   2572.96s CPU   2663.56s WALL (       1 calls)
     v_of_rho     :      1.32s CPU      1.89s WALL (       1 calls)
     v_h          :      0.12s CPU      0.20s WALL (       1 calls)
     v_xc         :      1.20s CPU      1.70s WALL (       1 calls)
     newd         :      3.84s CPU      6.89s WALL (       1 calls)

     Called by c_bands:
     init_us_2    :      2.42s CPU      2.56s WALL (      20 calls)
     cegterg      :   2420.10s CPU   2504.76s WALL (      65 calls)

     Called by sum_band:

     Called by *egterg:
     cdiaghg      :     62.19s CPU     62.32s WALL (    1070 calls)
     cegterg:over :    393.92s CPU    394.16s WALL (    1050 calls)
     cegterg:upda :    335.72s CPU    348.37s WALL (    1050 calls)
     cegterg:last :     88.71s CPU     88.72s WALL (      85 calls)
     h_psi        :   1485.51s CPU   1539.57s WALL (    1135 calls)
     s_psi        :    146.06s CPU    146.17s WALL (    1135 calls)
     g_psi        :      8.32s CPU      8.33s WALL (    1050 calls)

     Called by h_psi:
     h_psi:calbec :    156.06s CPU    156.15s WALL (    1135 calls)
     vloc_psi     :   1174.21s CPU   1216.00s WALL (    1135 calls)
                                        0.00s GPU  (    1135 calls)
     add_vuspsi   :    146.81s CPU    146.84s WALL (    1135 calls)

     General routines
     calbec       :    156.06s CPU    156.14s WALL (    1135 calls)
     fft          :      1.57s CPU      1.84s WALL (      13 calls)
     ffts         :      0.52s CPU      0.52s WALL (       1 calls)
     fftw         :    911.34s CPU    940.97s WALL (   71330 calls)
     interpolate  :      0.61s CPU      0.66s WALL (       1 calls)
     davcio       :      0.00s CPU      0.99s WALL (      40 calls)

     Parallel routines

     PWSCF        :  43m 2.82s CPU  44m39.88s WALL


   This run was terminated on:  19: 2:45  10Jul2026            

=------------------------------------------------------------------------------=
   JOB DONE.
=------------------------------------------------------------------------------=
