
     Program PWSCF v.7.5 starts on  9Jul2026 at 14:28:36 

     This program is part of the open-source Quantum ESPRESSO suite
     for quantum simulation of materials; please cite
         "P. Giannozzi et al., J. Phys.:Condens. Matter 21 395502 (2009);
         "P. Giannozzi et al., J. Phys.:Condens. Matter 29 465901 (2017);
         "P. Giannozzi et al., J. Chem. Phys. 152 154105 (2020);
          URL http://www.quantum-espresso.org", 
     in publications or presentations arising from this work. More details at
     http://www.quantum-espresso.org/quote

     Parallel version (MPI), running on     5 processors

     MPI processes distributed on     1 nodes
     25495 MiB available memory on the printing compute node when the environment starts

     Reading input from gqd_relax.in

     Current dimensions of program PWSCF are:
     Max number of different atomic species (ntypx) = 10
     Max number of k-points (npk) =  40000
     Max angular momentum in pseudopotentials (lmaxx) =  4

     gamma-point specific algorithms are used
     Message from routine setup:
     using ibrav=0 with symmetry is DISCOURAGED, use correct ibrav instead

     R & G space division:  proc/nbgrp/npool/nimage =       5
     Subspace diagonalization in iterative solution of the eigenvalue problem:
     a serial algorithm will be used


     Parallelization info
     --------------------
     sticks:   dense  smooth     PW     G-vecs:    dense   smooth      PW
     Min       14920    7460   1865              3277368  1158720  144854
     Max       14922    7462   1866              3277370  1158726  144858
     Sum       74605   37307   9329             16386845  5793619  724277

     Using Slab Decomposition



     bravais-lattice index     =            0
     lattice parameter (alat)  =      46.7221  a.u.
     unit-cell volume          =   92274.9062 (a.u.)^3
     number of atoms/cell      =           46
     number of atomic types    =            2
     number of electrons       =       142.00
     number of Kohn-Sham states=           71
     kinetic-energy cutoff     =      60.0000  Ry
     charge density cutoff     =     480.0000  Ry
     scf convergence threshold =      1.0E-08
     mixing beta               =       0.3000
     number of iterations used =            8  plain     mixing
     energy convergence thresh.=      1.0E-04
     force convergence thresh. =      1.0E-03
     Exchange-correlation= PBE
                           (   1   4   3   4   0   0   0)
     nstep                     =           50


     celldm(1)=  46.722066  celldm(2)=   0.000000  celldm(3)=   0.000000
     celldm(4)=   0.000000  celldm(5)=   0.000000  celldm(6)=   0.000000

     crystal axes: (cart. coord. in units of alat)
               a(1) = (   1.000000   0.000000   0.000000 )  
               a(2) = (  -0.516583   0.894748   0.000000 )  
               a(3) = (   0.000000  -0.000000   1.011153 )  

     reciprocal axes: (cart. coord. in units 2 pi/alat)
               b(1) = (  1.000000  0.577350  0.000000 )  
               b(2) = ( -0.000000  1.117633  0.000000 )  
               b(3) = (  0.000000 -0.000000  0.988970 )  


     PseudoPot. # 1 for C  read from file:
     /home/nihal/Desktop/pseudos/C.us.pbe.z_4.uspp.gbrv.v1.2.upf
     MD5 check sum: 9630a62af89b2189feb759fc7f027601
     Pseudo is Ultrasoft + core correction, Zval =  4.0
     
     Using radial grid of  721 points,  4 beta functions with: 
                l(1) =   0
                l(2) =   0
                l(3) =   1
                l(4) =   1
     Q(r) pseudized with 0 coefficients 


     PseudoPot. # 2 for H  read from file:
     /home/nihal/Desktop/pseudos/H.us.pbe.z_1.ld1.psl.v1.0.0-high.upf
     MD5 check sum: e76273ea4edb62c5e3246d46a5fe24e3
     Pseudo is Ultrasoft, Zval =  1.0
     Generated using &quot;atomic&quot; code by A. Dal Corso  v.6.3MaX
     Using radial grid of  929 points,  2 beta functions with: 
                l(1) =   0
                l(2) =   0
     Q(r) pseudized with 0 coefficients 


     atomic species   valence    mass     pseudopotential
     C                 4.00    12.01100     C ( 1.00)
     H                 1.00     1.00800     H ( 1.00)

      2 Sym. Ops. (no inversion) found


                                    s                        frac. trans.

      isym =  1     identity                                     

 cryst.   s( 1) = (     1          0          0      )
                  (     0          1          0      )
                  (     0          0          1      )

 cart.    s( 1) = (  1.0000000  0.0000000  0.0000000 )
                  (  0.0000000  1.0000000  0.0000000 )
                  (  0.0000000  0.0000000  1.0000000 )


      isym =  2     180 deg rotation - cart. axis [0,0,1]        

 cryst.   s( 2) = (    -1          0          0      )
                  (     0         -1          0      )
                  (     0          0          1      )

 cart.    s( 2) = ( -1.0000000 -0.0000000  0.0000000 )
                  (  0.0000000 -1.0000000  0.0000000 )
                  (  0.0000000  0.0000000  1.0000000 )


   Cartesian axes

     site n.     atom                  positions (alat units)
         1        C      tau(   1) = (   0.0924624   0.3324842   0.2022306  )
         2        C      tau(   2) = (   0.0427137   0.4186515   0.2022306  )
         3        C      tau(   3) = (   0.1422111   0.3037617   0.2022306  )
         4        C      tau(   4) = (   0.1919598   0.3324842   0.2022306  )
         5        C      tau(   5) = (   0.0924624   0.3899290   0.2022306  )
         6        C      tau(   6) = (   0.1422111   0.4186515   0.2022306  )
         7        C      tau(   7) = (   0.0427137   0.4760964   0.2022306  )
         8        C      tau(   8) = (   0.0924624   0.5048188   0.2022306  )
         9        C      tau(   9) = (   0.2417085   0.3037617   0.2022306  )
        10        C      tau(  10) = (   0.2914573   0.3324842   0.2022306  )
        11        C      tau(  11) = (   0.1919598   0.3899290   0.2022306  )
        12        C      tau(  12) = (   0.2417085   0.4186515   0.2022306  )
        13        C      tau(  13) = (   0.1422111   0.4760964   0.2022306  )
        14        C      tau(  14) = (   0.1919598   0.5048188   0.2022306  )
        15        C      tau(  15) = (   0.0924624   0.5622637   0.2022306  )
        16        C      tau(  16) = (   0.1422111   0.5909861   0.2022306  )
        17        C      tau(  17) = (   0.3412060   0.3037617   0.2022306  )
        18        C      tau(  18) = (   0.3909547   0.3324842   0.2022306  )
        19        C      tau(  19) = (   0.2914573   0.3899290   0.2022306  )
        20        C      tau(  20) = (   0.3412060   0.4186515   0.2022306  )
        21        C      tau(  21) = (   0.2417085   0.4760964   0.2022306  )
        22        C      tau(  22) = (   0.2914573   0.5048188   0.2022306  )
        23        C      tau(  23) = (   0.1919598   0.5622637   0.2022306  )
        24        C      tau(  24) = (   0.2417085   0.5909861   0.2022306  )
        25        C      tau(  25) = (   0.3909547   0.3899290   0.2022306  )
        26        C      tau(  26) = (   0.4407034   0.4186515   0.2022306  )
        27        C      tau(  27) = (   0.3412060   0.4760964   0.2022306  )
        28        C      tau(  28) = (   0.3909547   0.5048188   0.2022306  )
        29        C      tau(  29) = (   0.2914573   0.5622637   0.2022306  )
        30        C      tau(  30) = (   0.3412060   0.5909861   0.2022306  )
        31        C      tau(  31) = (   0.4407034   0.4760964   0.2022306  )
        32        C      tau(  32) = (   0.3909547   0.5622637   0.2022306  )
        33        H      tau(  33) = (   0.0542825   0.3104410   0.2022306  )
        34        H      tau(  34) = (   0.0045338   0.3966083   0.2022306  )
        35        H      tau(  35) = (   0.1422111   0.2596755   0.2022306  )
        36        H      tau(  36) = (   0.0045338   0.4981395   0.2022306  )
        37        H      tau(  37) = (   0.0542825   0.5843068   0.2022306  )
        38        H      tau(  38) = (   0.1422111   0.6350724   0.2022306  )
        39        H      tau(  39) = (   0.3412060   0.2596755   0.2022306  )
        40        H      tau(  40) = (   0.4291345   0.3104410   0.2022306  )
        41        H      tau(  41) = (   0.4788833   0.3966083   0.2022306  )
        42        H      tau(  42) = (   0.3412060   0.6350724   0.2022306  )
        43        H      tau(  43) = (   0.4788833   0.4981395   0.2022306  )
        44        H      tau(  44) = (   0.4291345   0.5843068   0.2022306  )
        45        H      tau(  45) = (   0.2417085   0.2596754   0.2022306  )
        46        H      tau(  46) = (   0.2417085   0.6350724   0.2022306  )

   Crystallographic axes

     site n.     atom                  positions (cryst. coord.)
         1        C      tau(   1) = (  0.2844222  0.3715954  0.2000000  )
         2        C      tau(   2) = (  0.2844222  0.4678988  0.2000000  )
         3        C      tau(   3) = (  0.3175880  0.3394942  0.2000000  )
         4        C      tau(   4) = (  0.3839196  0.3715954  0.2000000  )
         5        C      tau(   5) = (  0.3175880  0.4357977  0.2000000  )
         6        C      tau(   6) = (  0.3839196  0.4678988  0.2000000  )
         7        C      tau(   7) = (  0.3175880  0.5321012  0.2000000  )
         8        C      tau(   8) = (  0.3839196  0.5642023  0.2000000  )
         9        C      tau(   9) = (  0.4170855  0.3394942  0.2000000  )
        10        C      tau(  10) = (  0.4834171  0.3715954  0.2000000  )
        11        C      tau(  11) = (  0.4170855  0.4357977  0.2000000  )
        12        C      tau(  12) = (  0.4834171  0.4678988  0.2000000  )
        13        C      tau(  13) = (  0.4170855  0.5321012  0.2000000  )
        14        C      tau(  14) = (  0.4834171  0.5642023  0.2000000  )
        15        C      tau(  15) = (  0.4170855  0.6284046  0.2000000  )
        16        C      tau(  16) = (  0.4834171  0.6605058  0.2000000  )
        17        C      tau(  17) = (  0.5165829  0.3394942  0.2000000  )
        18        C      tau(  18) = (  0.5829145  0.3715954  0.2000000  )
        19        C      tau(  19) = (  0.5165829  0.4357977  0.2000000  )
        20        C      tau(  20) = (  0.5829145  0.4678988  0.2000000  )
        21        C      tau(  21) = (  0.5165829  0.5321012  0.2000000  )
        22        C      tau(  22) = (  0.5829145  0.5642023  0.2000000  )
        23        C      tau(  23) = (  0.5165829  0.6284046  0.2000000  )
        24        C      tau(  24) = (  0.5829145  0.6605058  0.2000000  )
        25        C      tau(  25) = (  0.6160804  0.4357977  0.2000000  )
        26        C      tau(  26) = (  0.6824120  0.4678988  0.2000000  )
        27        C      tau(  27) = (  0.6160804  0.5321012  0.2000000  )
        28        C      tau(  28) = (  0.6824120  0.5642023  0.2000000  )
        29        C      tau(  29) = (  0.6160804  0.6284046  0.2000000  )
        30        C      tau(  30) = (  0.6824120  0.6605058  0.2000000  )
        31        C      tau(  31) = (  0.7155778  0.5321012  0.2000000  )
        32        C      tau(  32) = (  0.7155778  0.6284046  0.2000000  )
        33        H      tau(  33) = (  0.2335158  0.3469592  0.2000000  )
        34        H      tau(  34) = (  0.2335158  0.4432627  0.2000000  )
        35        H      tau(  35) = (  0.2921348  0.2902219  0.2000000  )
        36        H      tau(  36) = (  0.2921348  0.5567373  0.2000000  )
        37        H      tau(  37) = (  0.3916322  0.6530408  0.2000000  )
        38        H      tau(  38) = (  0.5088703  0.7097781  0.2000000  )
        39        H      tau(  39) = (  0.4911297  0.2902219  0.2000000  )
        40        H      tau(  40) = (  0.6083678  0.3469592  0.2000000  )
        41        H      tau(  41) = (  0.7078652  0.4432627  0.2000000  )
        42        H      tau(  42) = (  0.7078652  0.7097781  0.2000000  )
        43        H      tau(  43) = (  0.7664842  0.5567373  0.2000000  )
        44        H      tau(  44) = (  0.7664842  0.6530408  0.2000000  )
        45        H      tau(  45) = (  0.3916322  0.2902219  0.2000000  )
        46        H      tau(  46) = (  0.6083678  0.7097781  0.2000000  )

     number of k points=     1
                       cart. coord. in units 2pi/alat
        k(    1) = (   0.0000000   0.0000000   0.0000000), wk =   2.0000000

                       cryst. coord.
        k(    1) = (   0.0000000   0.0000000   0.0000000), wk =   2.0000000

     Dense  grid:  8193423 G-vectors     FFT dimensions: ( 360, 360, 360)

     Smooth grid:  2896810 G-vectors     FFT dimensions: ( 240, 240, 240)

     Dynamical RAM for                 wfc:      78.46 MB

     Dynamical RAM for     wfc (w. buffer):      78.46 MB

     Dynamical RAM for           str. fact:      50.01 MB

     Dynamical RAM for           local pot:       0.00 MB

     Dynamical RAM for          nlocal pot:     313.83 MB

     Dynamical RAM for                qrad:       1.00 MB

     Dynamical RAM for          rho,v,vnew:     288.59 MB

     Dynamical RAM for               rhoin:      96.20 MB

     Dynamical RAM for            rho*nmix:     400.07 MB

     Dynamical RAM for           G-vectors:      98.19 MB

     Dynamical RAM for          h,s,v(r/c):       0.46 MB

     Dynamical RAM for          <psi|beta>:       0.15 MB

     Dynamical RAM for                 psi:     156.92 MB

     Dynamical RAM for                hpsi:     156.92 MB

     Dynamical RAM for                spsi:     156.92 MB

     Dynamical RAM for      wfcinit/wfcrot:     157.03 MB

     Dynamical RAM for           addusdens:    1875.33 MB

     Dynamical RAM for          addusforce:    3438.12 MB

     Estimated static dynamical RAM per process >       1.33 GB

     Estimated max dynamical RAM per process >       5.07 GB

     Estimated total dynamical RAM >      25.37 GB

     Initial potential from superposition of free atoms

     starting charge     141.9986, renormalised to     142.0000

     negative rho (up, down):  3.165E-03 0.000E+00
     Starting wfcs are  142 randomized atomic wfcs

     total cpu time spent up to now is       16.9 secs

     Self-consistent Calculation

     iteration #  1     ecut=    60.00 Ry     beta= 0.30
     Davidson diagonalization with overlap

---- Real-time Memory Report at c_bands before calling an iterative solver
          2481 MiB given to the printing process from OS
             0 MiB allocation reported by mallinfo(arena+hblkhd)
         20423 MiB available memory on the node where the printing process lives
------------------
     ethr =  1.00E-02,  avg # of iterations =  2.0

     negative rho (up, down):  5.449E-03 0.000E+00

     total cpu time spent up to now is       38.5 secs

     total energy              =    -384.38749789 Ry
     estimated scf accuracy    <       4.76121746 Ry

     iteration #  2     ecut=    60.00 Ry     beta= 0.30
     Davidson diagonalization with overlap

---- Real-time Memory Report at c_bands before calling an iterative solver
          3027 MiB given to the printing process from OS
             0 MiB allocation reported by mallinfo(arena+hblkhd)
         17888 MiB available memory on the node where the printing process lives
------------------
     ethr =  3.35E-03,  avg # of iterations =  1.0

     negative rho (up, down):  9.614E-03 0.000E+00

     total cpu time spent up to now is       56.1 secs

     total energy              =    -383.77305838 Ry
     estimated scf accuracy    <       1.44739220 Ry

     iteration #  3     ecut=    60.00 Ry     beta= 0.30
     Davidson diagonalization with overlap

---- Real-time Memory Report at c_bands before calling an iterative solver
          3140 MiB given to the printing process from OS
             0 MiB allocation reported by mallinfo(arena+hblkhd)
         17787 MiB available memory on the node where the printing process lives
------------------
     ethr =  1.02E-03,  avg # of iterations =  2.0

     negative rho (up, down):  1.008E-02 0.000E+00

     total cpu time spent up to now is       77.5 secs

     total energy              =    -383.98865464 Ry
     estimated scf accuracy    <       0.13606332 Ry

     iteration #  4     ecut=    60.00 Ry     beta= 0.30
     Davidson diagonalization with overlap

---- Real-time Memory Report at c_bands before calling an iterative solver
          3157 MiB given to the printing process from OS
             0 MiB allocation reported by mallinfo(arena+hblkhd)
         17648 MiB available memory on the node where the printing process lives
------------------
     ethr =  9.58E-05,  avg # of iterations =  3.0

     negative rho (up, down):  1.061E-02 0.000E+00

     total cpu time spent up to now is       98.5 secs

     total energy              =    -384.00474679 Ry
     estimated scf accuracy    <       0.09036000 Ry

     iteration #  5     ecut=    60.00 Ry     beta= 0.30
     Davidson diagonalization with overlap

---- Real-time Memory Report at c_bands before calling an iterative solver
          3175 MiB given to the printing process from OS
             0 MiB allocation reported by mallinfo(arena+hblkhd)
         17519 MiB available memory on the node where the printing process lives
------------------
     ethr =  6.36E-05,  avg # of iterations =  2.0

     negative rho (up, down):  1.051E-02 0.000E+00

     total cpu time spent up to now is      117.9 secs

     total energy              =    -384.00912465 Ry
     estimated scf accuracy    <       0.00825460 Ry

     iteration #  6     ecut=    60.00 Ry     beta= 0.30
     Davidson diagonalization with overlap

---- Real-time Memory Report at c_bands before calling an iterative solver
          3193 MiB given to the printing process from OS
             0 MiB allocation reported by mallinfo(arena+hblkhd)
         17499 MiB available memory on the node where the printing process lives
------------------
     ethr =  5.81E-06,  avg # of iterations =  4.0

     negative rho (up, down):  1.059E-02 0.000E+00

     total cpu time spent up to now is      140.0 secs

     total energy              =    -384.01314985 Ry
     estimated scf accuracy    <       0.00387582 Ry

     iteration #  7     ecut=    60.00 Ry     beta= 0.30
     Davidson diagonalization with overlap

---- Real-time Memory Report at c_bands before calling an iterative solver
          3210 MiB given to the printing process from OS
             0 MiB allocation reported by mallinfo(arena+hblkhd)
         17460 MiB available memory on the node where the printing process lives
------------------
     ethr =  2.73E-06,  avg # of iterations =  1.0

     negative rho (up, down):  1.063E-02 0.000E+00

     total cpu time spent up to now is      157.7 secs

     total energy              =    -384.01145969 Ry
     estimated scf accuracy    <       0.00245962 Ry

     iteration #  8     ecut=    60.00 Ry     beta= 0.30
     Davidson diagonalization with overlap

---- Real-time Memory Report at c_bands before calling an iterative solver
          3228 MiB given to the printing process from OS
             0 MiB allocation reported by mallinfo(arena+hblkhd)
         17350 MiB available memory on the node where the printing process lives
------------------
     ethr =  1.73E-06,  avg # of iterations =  5.0

     negative rho (up, down):  1.071E-02 0.000E+00

     total cpu time spent up to now is      180.9 secs

     total energy              =    -384.01274682 Ry
     estimated scf accuracy    <       0.00304266 Ry

     iteration #  9     ecut=    60.00 Ry     beta= 0.30
     Davidson diagonalization with overlap

---- Real-time Memory Report at c_bands before calling an iterative solver
          3246 MiB given to the printing process from OS
             0 MiB allocation reported by mallinfo(arena+hblkhd)
         17286 MiB available memory on the node where the printing process lives
------------------
     ethr =  1.73E-06,  avg # of iterations =  2.0

     negative rho (up, down):  1.077E-02 0.000E+00

     total cpu time spent up to now is      199.6 secs

     total energy              =    -384.01229419 Ry
     estimated scf accuracy    <       0.00116745 Ry

     iteration # 10     ecut=    60.00 Ry     beta= 0.30
     Davidson diagonalization with overlap

---- Real-time Memory Report at c_bands before calling an iterative solver
          3263 MiB given to the printing process from OS
             0 MiB allocation reported by mallinfo(arena+hblkhd)
         17176 MiB available memory on the node where the printing process lives
------------------
     ethr =  8.22E-07,  avg # of iterations =  5.0

     negative rho (up, down):  1.083E-02 0.000E+00

     total cpu time spent up to now is      221.2 secs

     total energy              =    -384.01266652 Ry
     estimated scf accuracy    <       0.00017836 Ry

     iteration # 11     ecut=    60.00 Ry     beta= 0.30
     Davidson diagonalization with overlap

---- Real-time Memory Report at c_bands before calling an iterative solver
          3281 MiB given to the printing process from OS
             0 MiB allocation reported by mallinfo(arena+hblkhd)
         17172 MiB available memory on the node where the printing process lives
------------------
     ethr =  1.26E-07,  avg # of iterations =  5.0

     negative rho (up, down):  1.087E-02 0.000E+00

     total cpu time spent up to now is      241.0 secs

     total energy              =    -384.01267973 Ry
     estimated scf accuracy    <       0.00001734 Ry

     iteration # 12     ecut=    60.00 Ry     beta= 0.30
     Davidson diagonalization with overlap

---- Real-time Memory Report at c_bands before calling an iterative solver
          3281 MiB given to the printing process from OS
             0 MiB allocation reported by mallinfo(arena+hblkhd)
         17178 MiB available memory on the node where the printing process lives
------------------
     ethr =  1.22E-08,  avg # of iterations =  5.0

     negative rho (up, down):  1.090E-02 0.000E+00

     total cpu time spent up to now is      264.3 secs

     total energy              =    -384.01268643 Ry
     estimated scf accuracy    <       0.00000863 Ry

     iteration # 13     ecut=    60.00 Ry     beta= 0.30
     Davidson diagonalization with overlap

---- Real-time Memory Report at c_bands before calling an iterative solver
          3281 MiB given to the printing process from OS
             0 MiB allocation reported by mallinfo(arena+hblkhd)
         17162 MiB available memory on the node where the printing process lives
------------------
     ethr =  6.08E-09,  avg # of iterations =  4.0

     negative rho (up, down):  1.093E-02 0.000E+00

     total cpu time spent up to now is      284.3 secs

     total energy              =    -384.01268645 Ry
     estimated scf accuracy    <       0.00000243 Ry

     iteration # 14     ecut=    60.00 Ry     beta= 0.30
     Davidson diagonalization with overlap

---- Real-time Memory Report at c_bands before calling an iterative solver
          3281 MiB given to the printing process from OS
             0 MiB allocation reported by mallinfo(arena+hblkhd)
         17182 MiB available memory on the node where the printing process lives
------------------
     ethr =  1.71E-09,  avg # of iterations =  5.0

     negative rho (up, down):  1.095E-02 0.000E+00

     total cpu time spent up to now is      305.8 secs

     total energy              =    -384.01268719 Ry
     estimated scf accuracy    <       0.00000016 Ry

     iteration # 15     ecut=    60.00 Ry     beta= 0.30
     Davidson diagonalization with overlap

---- Real-time Memory Report at c_bands before calling an iterative solver
          3281 MiB given to the printing process from OS
             0 MiB allocation reported by mallinfo(arena+hblkhd)
         17235 MiB available memory on the node where the printing process lives
------------------
     ethr =  1.13E-10,  avg # of iterations =  2.0

     negative rho (up, down):  1.096E-02 0.000E+00

     total cpu time spent up to now is      324.8 secs

     total energy              =    -384.01268718 Ry
     estimated scf accuracy    <       0.00000011 Ry

     iteration # 16     ecut=    60.00 Ry     beta= 0.30
     Davidson diagonalization with overlap

---- Real-time Memory Report at c_bands before calling an iterative solver
          3281 MiB given to the printing process from OS
             0 MiB allocation reported by mallinfo(arena+hblkhd)
         17241 MiB available memory on the node where the printing process lives
------------------
     ethr =  7.83E-11,  avg # of iterations =  5.0

     negative rho (up, down):  1.097E-02 0.000E+00

     total cpu time spent up to now is      346.2 secs

     total energy              =    -384.01268723 Ry
     estimated scf accuracy    <       0.00000001 Ry

     iteration # 17     ecut=    60.00 Ry     beta= 0.30
     Davidson diagonalization with overlap

---- Real-time Memory Report at c_bands before calling an iterative solver
          3281 MiB given to the printing process from OS
             0 MiB allocation reported by mallinfo(arena+hblkhd)
         17186 MiB available memory on the node where the printing process lives
------------------
     ethr =  8.03E-12,  avg # of iterations =  5.0

     negative rho (up, down):  1.099E-02 0.000E+00

     total cpu time spent up to now is      365.5 secs

     End of self-consistent calculation

          k = 0.0000 0.0000 0.0000 (362139 PWs)   bands (ev):

   -22.5704 -21.9171 -21.6151 -20.9558 -20.8483 -20.1975 -19.8286 -19.7140
   -19.2868 -18.5504 -18.5183 -18.5068 -18.0310 -17.6854 -17.3630 -16.9500
   -15.7371 -15.7178 -15.6828 -15.5827 -15.3494 -14.9898 -14.0251 -14.0226
   -13.7850 -13.3693 -12.9773 -12.9312 -12.8659 -12.0221 -11.9288 -11.6089
   -11.4818 -11.4764 -11.2791 -10.9952 -10.6145 -10.5931 -10.3454 -10.3437
   -10.1230 -10.1199 -10.0810  -9.9640  -9.8809  -9.6701  -9.5607  -9.5368
    -9.3378  -9.1052  -8.8435  -8.8243  -8.7977  -8.7859  -8.7014  -8.2973
    -8.2932  -8.0491  -7.9034  -7.5978  -7.5110  -7.3861  -7.3160  -7.0521
    -6.4581  -6.4515  -6.1772  -5.8098  -5.5378  -5.1239  -4.4815

     occupation numbers 
     1.0000   1.0000   1.0000   1.0000   1.0000   1.0000   1.0000   1.0000
     1.0000   1.0000   1.0000   1.0000   1.0000   1.0000   1.0000   1.0000
     1.0000   1.0000   1.0000   1.0000   1.0000   1.0000   1.0000   1.0000
     1.0000   1.0000   1.0000   1.0000   1.0000   1.0000   1.0000   1.0000
     1.0000   1.0000   1.0000   1.0000   1.0000   1.0000   1.0000   1.0000
     1.0000   1.0000   1.0000   1.0000   1.0000   1.0000   1.0000   1.0000
     1.0000   1.0000   1.0000   1.0000   1.0000   1.0000   1.0000   1.0000
     1.0000   1.0000   1.0000   1.0000   1.0000   1.0000   1.0000   1.0000
     1.0000   1.0000   1.0000   1.0000   1.0000   1.0000   1.0000

     highest occupied level (ev):    -4.4815

!    total energy              =    -384.01268730 Ry
     estimated scf accuracy    <          8.5E-10 Ry

     The total energy is the sum of the following terms:
     one-electron contribution =   -3468.44232642 Ry
     hartree contribution      =    1749.51663912 Ry
     xc contribution           =    -125.57662415 Ry
     ewald contribution        =    1460.48962416 Ry

     convergence has been achieved in  17 iterations

     negative rho (up, down):  1.099E-02 0.000E+00

     Forces acting on atoms (cartesian axes, Ry/au):

     atom    1 type  1   force =     0.07869100   -0.04655232   -0.00000000
     atom    2 type  1   force =     0.01135576    0.06872373   -0.00000001
     atom    3 type  1   force =    -0.08185257    0.04293931    0.00000000
     atom    4 type  1   force =     0.02741907   -0.04523944   -0.00000000
     atom    5 type  1   force =    -0.03104998   -0.00386425   -0.00000001
     atom    6 type  1   force =     0.00234611   -0.00155792    0.00000000
     atom    7 type  1   force =     0.01135593   -0.06872405    0.00000000
     atom    8 type  1   force =    -0.03104991    0.00386414    0.00000000
     atom    9 type  1   force =    -0.00000009    0.04557489   -0.00000000
     atom   10 type  1   force =    -0.02741934   -0.04523938   -0.00000000
     atom   11 type  1   force =     0.00204992    0.01245755    0.00000000
     atom   12 type  1   force =     0.00000001   -0.01187989    0.00000000
     atom   13 type  1   force =     0.00234638    0.00155809    0.00000000
     atom   14 type  1   force =     0.00205016   -0.01245781    0.00000000
     atom   15 type  1   force =     0.07869111    0.04655169   -0.00000000
     atom   16 type  1   force =    -0.08185243   -0.04293913   -0.00000000
     atom   17 type  1   force =     0.08185243    0.04293913   -0.00000000
     atom   18 type  1   force =    -0.07869111   -0.04655169   -0.00000000
     atom   19 type  1   force =    -0.00205016    0.01245781    0.00000000
     atom   20 type  1   force =    -0.00234638   -0.00155809    0.00000000
     atom   21 type  1   force =    -0.00000001    0.01187989    0.00000000
     atom   22 type  1   force =    -0.00204992   -0.01245755    0.00000000
     atom   23 type  1   force =     0.02741934    0.04523938   -0.00000000
     atom   24 type  1   force =     0.00000009   -0.04557489   -0.00000000
     atom   25 type  1   force =     0.03104991   -0.00386414    0.00000000
     atom   26 type  1   force =    -0.01135593    0.06872405    0.00000000
     atom   27 type  1   force =    -0.00234611    0.00155792    0.00000000
     atom   28 type  1   force =     0.03104998    0.00386425   -0.00000001
     atom   29 type  1   force =    -0.02741907    0.04523944   -0.00000000
     atom   30 type  1   force =     0.08185257   -0.04293931    0.00000000
     atom   31 type  1   force =    -0.01135576   -0.06872373   -0.00000001
     atom   32 type  1   force =    -0.07869100    0.04655232   -0.00000000
     atom   33 type  2   force =    -0.00079134    0.00107081   -0.00000000
     atom   34 type  2   force =     0.00067732   -0.00156236    0.00000000
     atom   35 type  2   force =     0.00131702   -0.00002005   -0.00000000
     atom   36 type  2   force =     0.00067746    0.00156227   -0.00000000
     atom   37 type  2   force =    -0.00079117   -0.00107069    0.00000000
     atom   38 type  2   force =     0.00131684    0.00002005    0.00000000
     atom   39 type  2   force =    -0.00131684   -0.00002005    0.00000000
     atom   40 type  2   force =     0.00079117    0.00107069    0.00000000
     atom   41 type  2   force =    -0.00067746   -0.00156227   -0.00000000
     atom   42 type  2   force =    -0.00131702    0.00002005   -0.00000000
     atom   43 type  2   force =    -0.00067732    0.00156236    0.00000000
     atom   44 type  2   force =     0.00079134   -0.00107081   -0.00000000
     atom   45 type  2   force =     0.00000008   -0.00033701   -0.00000000
     atom   46 type  2   force =    -0.00000008    0.00033701   -0.00000000
     The non-local contrib.  to forces
     atom    1 type  1   force =     0.05510275   -0.00077932   -0.00000001
     atom    2 type  1   force =     0.02926556    0.04224241   -0.00000001
     atom    3 type  1   force =    -0.02836256    0.04770153    0.00000001
     atom    4 type  1   force =     0.00533301   -0.00620357    0.00000000
     atom    5 type  1   force =    -0.00404020    0.00012667    0.00000000
     atom    6 type  1   force =     0.00372371    0.00068816   -0.00000001
     atom    7 type  1   force =     0.02926660   -0.04224449    0.00000001
     atom    8 type  1   force =    -0.00404040   -0.00012867   -0.00000001
     atom    9 type  1   force =    -0.00000069    0.05400787   -0.00000002
     atom   10 type  1   force =    -0.00533562   -0.00620276    0.00000000
     atom   11 type  1   force =     0.00268388    0.00593914    0.00000001
     atom   12 type  1   force =    -0.00000037    0.00022096   -0.00000000
     atom   13 type  1   force =     0.00372470   -0.00068897    0.00000001
     atom   14 type  1   force =     0.00268427   -0.00594005   -0.00000001
     atom   15 type  1   force =     0.05510546    0.00077556   -0.00000001
     atom   16 type  1   force =    -0.02836113   -0.04770538   -0.00000001
     atom   17 type  1   force =     0.02836113    0.04770538   -0.00000001
     atom   18 type  1   force =    -0.05510546   -0.00077556   -0.00000001
     atom   19 type  1   force =    -0.00268427    0.00594005   -0.00000001
     atom   20 type  1   force =    -0.00372470    0.00068897    0.00000001
     atom   21 type  1   force =     0.00000037   -0.00022096   -0.00000000
     atom   22 type  1   force =    -0.00268388   -0.00593914    0.00000001
     atom   23 type  1   force =     0.00533562    0.00620276    0.00000000
     atom   24 type  1   force =     0.00000069   -0.05400787   -0.00000002
     atom   25 type  1   force =     0.00404040    0.00012867   -0.00000001
     atom   26 type  1   force =    -0.02926660    0.04224449    0.00000001
     atom   27 type  1   force =    -0.00372371   -0.00068816   -0.00000001
     atom   28 type  1   force =     0.00404020   -0.00012667    0.00000000
     atom   29 type  1   force =    -0.00533301    0.00620357    0.00000000
     atom   30 type  1   force =     0.02836256   -0.04770153    0.00000001
     atom   31 type  1   force =    -0.02926556   -0.04224241   -0.00000001
     atom   32 type  1   force =    -0.05510275    0.00077932   -0.00000001
     atom   33 type  2   force =     0.06694201    0.03945868   -0.00000000
     atom   34 type  2   force =     0.06756160    0.03829824    0.00000000
     atom   35 type  2   force =     0.00071354    0.07767312   -0.00000000
     atom   36 type  2   force =     0.06756171   -0.03829841   -0.00000000
     atom   37 type  2   force =     0.06694217   -0.03945890   -0.00000000
     atom   38 type  2   force =     0.00071389   -0.07767329    0.00000000
     atom   39 type  2   force =    -0.00071389    0.07767329    0.00000000
     atom   40 type  2   force =    -0.06694217    0.03945890   -0.00000000
     atom   41 type  2   force =    -0.06756171    0.03829841   -0.00000000
     atom   42 type  2   force =    -0.00071354   -0.07767312   -0.00000000
     atom   43 type  2   force =    -0.06756160   -0.03829824    0.00000000
     atom   44 type  2   force =    -0.06694201   -0.03945868   -0.00000000
     atom   45 type  2   force =    -0.00000017    0.07748551   -0.00000000
     atom   46 type  2   force =     0.00000017   -0.07748551   -0.00000000
     The ionic contribution  to forces
     atom    1 type  1   force =    -8.51603301   -8.06684704   -0.00000000
     atom    2 type  1   force =   -11.25704086   -2.77225884   -0.00000000
     atom    3 type  1   force =    -4.08687365  -10.97025107   -0.00000000
     atom    4 type  1   force =    -1.82483622   -7.71097617   -0.00000000
     atom    5 type  1   force =    -7.19953686   -3.75239150   -0.00000000
     atom    6 type  1   force =    -4.04518823   -1.65393120   -0.00000000
     atom    7 type  1   force =   -11.25767306    2.78259657   -0.00000000
     atom    8 type  1   force =    -7.20190219    3.76164784   -0.00000000
     atom    9 type  1   force =     0.00557693  -11.43394624   -0.00000000
     atom   10 type  1   force =     1.83289572   -7.71528400   -0.00000000
     atom   11 type  1   force =    -1.87922558   -3.33922563   -0.00000000
     atom   12 type  1   force =     0.00096236   -1.62063542   -0.00000000
     atom   13 type  1   force =    -4.04676049    1.66026646   -0.00000000
     atom   14 type  1   force =    -1.88296545    3.34273780   -0.00000000
     atom   15 type  1   force =    -8.52114911    8.07823006   -0.00000000
     atom   16 type  1   force =    -4.09601623   10.97969969   -0.00000000
     atom   17 type  1   force =     4.09601602  -10.97969957   -0.00000000
     atom   18 type  1   force =     8.52114905   -8.07822997   -0.00000000
     atom   19 type  1   force =     1.88296537   -3.34273806   -0.00000000
     atom   20 type  1   force =     4.04676046   -1.66026656   -0.00000000
     atom   21 type  1   force =    -0.00096236    1.62063521   -0.00000000
     atom   22 type  1   force =     1.87922566    3.33922537   -0.00000000
     atom   23 type  1   force =    -1.83289621    7.71528369   -0.00000000
     atom   24 type  1   force =    -0.00557693   11.43394062   -0.00000000
     atom   25 type  1   force =     7.20190215   -3.76164794   -0.00000000
     atom   26 type  1   force =    11.25767304   -2.78259660   -0.00000000
     atom   27 type  1   force =     4.04518826    1.65393109   -0.00000000
     atom   28 type  1   force =     7.19953690    3.75239139   -0.00000000
     atom   29 type  1   force =     1.82483671    7.71097587   -0.00000000
     atom   30 type  1   force =     4.08687385   10.97025118   -0.00000000
     atom   31 type  1   force =    11.25704088    2.77225882   -0.00000000
     atom   32 type  1   force =     8.51603307    8.06684713   -0.00000000
     atom   33 type  2   force =    -3.46053170   -2.64942697   -0.00000000
     atom   34 type  2   force =    -4.01715749   -1.58282100    0.00000000
     atom   35 type  2   force =    -0.83886156   -4.28935562   -0.00000000
     atom   36 type  2   force =    -4.01723834    1.58565583   -0.00000000
     atom   37 type  2   force =    -3.46158532    2.65307047   -0.00000000
     atom   38 type  2   force =    -0.84218588    4.29237353   -0.00000000
     atom   39 type  2   force =     0.84218588   -4.29237346   -0.00000000
     atom   40 type  2   force =     3.46158531   -2.65307046   -0.00000000
     atom   41 type  2   force =     4.01723833   -1.58565584    0.00000000
     atom   42 type  2   force =     0.83886155    4.28935569   -0.00000000
     atom   43 type  2   force =     4.01715749    1.58282100   -0.00000000
     atom   44 type  2   force =     3.46053171    2.64942698   -0.00000000
     atom   45 type  2   force =     0.00202207   -4.51018139   -0.00000000
     atom   46 type  2   force =    -0.00202207    4.51018825   -0.00000000
     The local contribution  to forces
     atom    1 type  1   force =     8.53912323    8.02063999    0.00000000
     atom    2 type  1   force =    11.23850530    2.79851639    0.00000003
     atom    3 type  1   force =     4.03327308   10.96483559   -0.00000003
     atom    4 type  1   force =     1.84690070    7.67189692   -0.00000003
     atom    5 type  1   force =     7.17250085    3.74836879    0.00000000
     atom    6 type  1   force =     4.04383624    1.65169485    0.00000001
     atom    7 type  1   force =    11.23913667   -2.80885264   -0.00000001
     atom    8 type  1   force =     7.17486625   -3.75762348    0.00000001
     atom    9 type  1   force =    -0.00557641   11.42490546    0.00000004
     atom   10 type  1   force =    -1.85495795    7.67620407   -0.00000000
     atom   11 type  1   force =     1.87860527    3.34575915   -0.00000001
     atom   12 type  1   force =    -0.00096199    1.60855354    0.00000003
     atom   13 type  1   force =     4.04540776   -1.65802977   -0.00000001
     atom   14 type  1   force =     1.88234492   -3.34927186    0.00000003
     atom   15 type  1   force =     8.54423568   -8.03202013   -0.00000001
     atom   16 type  1   force =     4.04241321  -10.97428025    0.00000001
     atom   17 type  1   force =    -4.04241418   10.97428008    0.00000002
     atom   18 type  1   force =    -8.54423652    8.03201993    0.00000001
     atom   19 type  1   force =    -1.88234512    3.34927091    0.00000003
     atom   20 type  1   force =    -4.04540770    1.65802923   -0.00000001
     atom   21 type  1   force =     0.00096182   -1.60855413   -0.00000000
     atom   22 type  1   force =    -1.87860524   -3.34575990   -0.00000002
     atom   23 type  1   force =     1.85495753   -7.67620514   -0.00000000
     atom   24 type  1   force =     0.00557642  -11.42489986   -0.00000002
     atom   25 type  1   force =    -7.17486629    3.75762329    0.00000001
     atom   26 type  1   force =   -11.23913659    2.80885245   -0.00000000
     atom   27 type  1   force =    -4.04383626   -1.65169529   -0.00000001
     atom   28 type  1   force =    -7.17250060   -3.74836878   -0.00000004
     atom   29 type  1   force =    -1.84690017   -7.67189790   -0.00000002
     atom   30 type  1   force =    -4.03327216  -10.96483578   -0.00000000
     atom   31 type  1   force =   -11.23850522   -2.79851664    0.00000000
     atom   32 type  1   force =    -8.53912230   -8.02064014    0.00000000
     atom   33 type  2   force =     3.39279751    2.61103809    0.00000000
     atom   34 type  2   force =     3.95027149    1.54295842    0.00000000
     atom   35 type  2   force =     0.83946596    4.21166282   -0.00000001
     atom   36 type  2   force =     3.95035228   -1.54579312   -0.00000000
     atom   37 type  2   force =     3.39385116   -2.61468134   -0.00000000
     atom   38 type  2   force =     0.84278956   -4.21468036    0.00000000
     atom   39 type  2   force =    -0.84278975    4.21468049    0.00000000
     atom   40 type  2   force =    -3.39385112    2.61468126    0.00000000
     atom   41 type  2   force =    -3.95035234    1.54579316   -0.00000000
     atom   42 type  2   force =    -0.83946577   -4.21166271    0.00000000
     atom   43 type  2   force =    -3.95027143   -1.54295838    0.00000001
     atom   44 type  2   force =    -3.39279759   -2.61103821   -0.00000000
     atom   45 type  2   force =    -0.00202183    4.43236009    0.00000000
     atom   46 type  2   force =     0.00202184   -4.43236389   -0.00000000
     The core correction contribution to forces
     atom    1 type  1   force =     0.00050757    0.00043747   -0.00000000
     atom    2 type  1   force =     0.00063493    0.00021848    0.00000000
     atom    3 type  1   force =     0.00011933    0.00065703   -0.00000000
     atom    4 type  1   force =     0.00001975    0.00004774    0.00000000
     atom    5 type  1   force =     0.00004225    0.00003416    0.00000000
     atom    6 type  1   force =    -0.00002271   -0.00001044    0.00000000
     atom    7 type  1   force =     0.00063488   -0.00021841   -0.00000000
     atom    8 type  1   force =     0.00004226   -0.00003415    0.00000000
     atom    9 type  1   force =     0.00000002    0.00061329    0.00000000
     atom   10 type  1   force =    -0.00001963    0.00004769   -0.00000000
     atom   11 type  1   force =    -0.00001717   -0.00001784    0.00000000
     atom   12 type  1   force =    -0.00000004   -0.00002327    0.00000000
     atom   13 type  1   force =    -0.00002269    0.00001051   -0.00000000
     atom   14 type  1   force =    -0.00001729    0.00001786    0.00000000
     atom   15 type  1   force =     0.00050758   -0.00043734   -0.00000000
     atom   16 type  1   force =     0.00011930   -0.00065702    0.00000000
     atom   17 type  1   force =    -0.00011930    0.00065702    0.00000000
     atom   18 type  1   force =    -0.00050758    0.00043734    0.00000000
     atom   19 type  1   force =     0.00001729   -0.00001786    0.00000000
     atom   20 type  1   force =     0.00002269   -0.00001051   -0.00000000
     atom   21 type  1   force =     0.00000004    0.00002327   -0.00000000
     atom   22 type  1   force =     0.00001717    0.00001784   -0.00000000
     atom   23 type  1   force =     0.00001963   -0.00004769   -0.00000000
     atom   24 type  1   force =    -0.00000002   -0.00061326   -0.00000000
     atom   25 type  1   force =    -0.00004226    0.00003415    0.00000000
     atom   26 type  1   force =    -0.00063488    0.00021841    0.00000000
     atom   27 type  1   force =     0.00002271    0.00001044    0.00000000
     atom   28 type  1   force =    -0.00004225   -0.00003416   -0.00000000
     atom   29 type  1   force =    -0.00001975   -0.00004774    0.00000000
     atom   30 type  1   force =    -0.00011933   -0.00065703   -0.00000000
     atom   31 type  1   force =    -0.00063493   -0.00021848   -0.00000000
     atom   32 type  1   force =    -0.00050757   -0.00043747    0.00000000
     atom   33 type  2   force =     0.00000000    0.00000000    0.00000000
     atom   34 type  2   force =     0.00000000    0.00000000    0.00000000
     atom   35 type  2   force =     0.00000000    0.00000000    0.00000000
     atom   36 type  2   force =     0.00000000    0.00000000    0.00000000
     atom   37 type  2   force =     0.00000000    0.00000000    0.00000000
     atom   38 type  2   force =     0.00000000    0.00000000    0.00000000
     atom   39 type  2   force =     0.00000000    0.00000000    0.00000000
     atom   40 type  2   force =     0.00000000    0.00000000    0.00000000
     atom   41 type  2   force =     0.00000000    0.00000000    0.00000000
     atom   42 type  2   force =     0.00000000    0.00000000    0.00000000
     atom   43 type  2   force =     0.00000000    0.00000000    0.00000000
     atom   44 type  2   force =     0.00000000    0.00000000    0.00000000
     atom   45 type  2   force =     0.00000000    0.00000000    0.00000000
     atom   46 type  2   force =     0.00000000    0.00000000    0.00000000
     The Hubbard contrib.    to forces
     atom    1 type  1   force =     0.00000000    0.00000000    0.00000000
     atom    2 type  1   force =     0.00000000    0.00000000    0.00000000
     atom    3 type  1   force =     0.00000000    0.00000000    0.00000000
     atom    4 type  1   force =     0.00000000    0.00000000    0.00000000
     atom    5 type  1   force =     0.00000000    0.00000000    0.00000000
     atom    6 type  1   force =     0.00000000    0.00000000    0.00000000
     atom    7 type  1   force =     0.00000000    0.00000000    0.00000000
     atom    8 type  1   force =     0.00000000    0.00000000    0.00000000
     atom    9 type  1   force =     0.00000000    0.00000000    0.00000000
     atom   10 type  1   force =     0.00000000    0.00000000    0.00000000
     atom   11 type  1   force =     0.00000000    0.00000000    0.00000000
     atom   12 type  1   force =     0.00000000    0.00000000    0.00000000
     atom   13 type  1   force =     0.00000000    0.00000000    0.00000000
     atom   14 type  1   force =     0.00000000    0.00000000    0.00000000
     atom   15 type  1   force =     0.00000000    0.00000000    0.00000000
     atom   16 type  1   force =     0.00000000    0.00000000    0.00000000
     atom   17 type  1   force =     0.00000000    0.00000000    0.00000000
     atom   18 type  1   force =     0.00000000    0.00000000    0.00000000
     atom   19 type  1   force =     0.00000000    0.00000000    0.00000000
     atom   20 type  1   force =     0.00000000    0.00000000    0.00000000
     atom   21 type  1   force =     0.00000000    0.00000000    0.00000000
     atom   22 type  1   force =     0.00000000    0.00000000    0.00000000
     atom   23 type  1   force =     0.00000000    0.00000000    0.00000000
     atom   24 type  1   force =     0.00000000    0.00000000    0.00000000
     atom   25 type  1   force =     0.00000000    0.00000000    0.00000000
     atom   26 type  1   force =     0.00000000    0.00000000    0.00000000
     atom   27 type  1   force =     0.00000000    0.00000000    0.00000000
     atom   28 type  1   force =     0.00000000    0.00000000    0.00000000
     atom   29 type  1   force =     0.00000000    0.00000000    0.00000000
     atom   30 type  1   force =     0.00000000    0.00000000    0.00000000
     atom   31 type  1   force =     0.00000000    0.00000000    0.00000000
     atom   32 type  1   force =     0.00000000    0.00000000    0.00000000
     atom   33 type  2   force =     0.00000000    0.00000000    0.00000000
     atom   34 type  2   force =     0.00000000    0.00000000    0.00000000
     atom   35 type  2   force =     0.00000000    0.00000000    0.00000000
     atom   36 type  2   force =     0.00000000    0.00000000    0.00000000
     atom   37 type  2   force =     0.00000000    0.00000000    0.00000000
     atom   38 type  2   force =     0.00000000    0.00000000    0.00000000
     atom   39 type  2   force =     0.00000000    0.00000000    0.00000000
     atom   40 type  2   force =     0.00000000    0.00000000    0.00000000
     atom   41 type  2   force =     0.00000000    0.00000000    0.00000000
     atom   42 type  2   force =     0.00000000    0.00000000    0.00000000
     atom   43 type  2   force =     0.00000000    0.00000000    0.00000000
     atom   44 type  2   force =     0.00000000    0.00000000    0.00000000
     atom   45 type  2   force =     0.00000000    0.00000000    0.00000000
     atom   46 type  2   force =     0.00000000    0.00000000    0.00000000
     The SCF correction term to forces
     atom    1 type  1   force =    -0.00000961   -0.00000340    0.00000000
     atom    2 type  1   force =    -0.00000925    0.00000534   -0.00000002
     atom    3 type  1   force =    -0.00000888   -0.00000384    0.00000002
     atom    4 type  1   force =     0.00000187   -0.00000439    0.00000002
     atom    5 type  1   force =    -0.00001611   -0.00000232   -0.00000000
     atom    6 type  1   force =    -0.00000293    0.00000084    0.00000001
     atom    7 type  1   force =    -0.00000908   -0.00000504   -0.00000000
     atom    8 type  1   force =    -0.00001574    0.00000266   -0.00000001
     atom    9 type  1   force =     0.00000006   -0.00000560   -0.00000000
     atom   10 type  1   force =    -0.00000185   -0.00000440    0.00000000
     atom   11 type  1   force =     0.00000353    0.00000293    0.00000001
     atom   12 type  1   force =     0.00000006    0.00000446   -0.00000001
     atom   13 type  1   force =    -0.00000290    0.00000001    0.00000001
     atom   14 type  1   force =     0.00000372   -0.00000133   -0.00000001
     atom   15 type  1   force =    -0.00000840    0.00000359    0.00000001
     atom   16 type  1   force =    -0.00000749    0.00000381   -0.00000000
     atom   17 type  1   force =     0.00000884   -0.00000382   -0.00000001
     atom   18 type  1   force =     0.00000949   -0.00000338   -0.00000000
     atom   19 type  1   force =    -0.00000342    0.00000299   -0.00000001
     atom   20 type  1   force =     0.00000289    0.00000093    0.00000001
     atom   21 type  1   force =     0.00000012   -0.00000334   -0.00000000
     atom   22 type  1   force =    -0.00000363   -0.00000153    0.00000001
     atom   23 type  1   force =     0.00000276    0.00000574   -0.00000001
     atom   24 type  1   force =    -0.00000008    0.00000539    0.00000002
     atom   25 type  1   force =     0.00001599   -0.00000224    0.00000000
     atom   26 type  1   force =     0.00000918    0.00000535    0.00000000
     atom   27 type  1   force =     0.00000287   -0.00000002    0.00000002
     atom   28 type  1   force =     0.00001565    0.00000252    0.00000002
     atom   29 type  1   force =    -0.00000283    0.00000561    0.00000001
     atom   30 type  1   force =     0.00000755    0.00000378   -0.00000000
     atom   31 type  1   force =     0.00000899   -0.00000499   -0.00000001
     atom   32 type  1   force =     0.00000847    0.00000349    0.00000000
     atom   33 type  2   force =     0.00000077    0.00000098   -0.00000000
     atom   34 type  2   force =     0.00000173    0.00000200   -0.00000000
     atom   35 type  2   force =    -0.00000093   -0.00000040    0.00000000
     atom   36 type  2   force =     0.00000179   -0.00000201    0.00000000
     atom   37 type  2   force =     0.00000086   -0.00000094    0.00000000
     atom   38 type  2   force =    -0.00000073    0.00000014   -0.00000000
     atom   39 type  2   force =     0.00000094   -0.00000039   -0.00000000
     atom   40 type  2   force =    -0.00000079    0.00000098   -0.00000000
     atom   41 type  2   force =    -0.00000175    0.00000202    0.00000000
     atom   42 type  2   force =     0.00000072    0.00000016   -0.00000000
     atom   43 type  2   force =    -0.00000177   -0.00000199   -0.00000000
     atom   44 type  2   force =    -0.00000082   -0.00000093   -0.00000000
     atom   45 type  2   force =     0.00000001    0.00000005   -0.00000000
     atom   46 type  2   force =    -0.00000001   -0.00000057    0.00000000

     Total force =     0.327507     Total SCF correction =     0.000050

     BFGS Geometry Optimization
     Energy error            =      1.1E-01 Ry
     Gradient error          =      8.2E-02 Ry/Bohr

     number of scf cycles    =   1
     number of bfgs steps    =   0

     energy             new  =    -384.0126872956 Ry

     new trust radius        =       0.0924317436 bohr
     new conv_thr            =       0.0000000100 Ry


ATOMIC_POSITIONS (angstrom)
C                2.3277046264        8.1957880615        4.9999999975
C                1.0620723518       10.3872120232        4.9999999966
C                3.4727486262        7.5330041640        5.0000000012
C                4.7605726873        8.1964828087        4.9999999991
C                2.2696321971        9.6386592866        4.9999999967
C                3.5173046470       10.3500205738        5.0000000020
C                1.0620724416       11.7347594478        5.0000000010
C                2.2696322357       12.4833122956        5.0000000015
C                5.9760630921        7.5343988528        4.9999999997
C                7.1915534483        8.1964828394        4.9999999998
C                4.7471479118        9.6472964119        5.0000000000
C                5.9760631445       10.3445584228        5.0000000024
C                3.5173047914       11.7719511560        5.0000000014
C                4.7471480374       12.4746750897        5.0000000021
C                2.3277046837       13.9261832336        4.9999999990
C                3.4727487015       14.5889675612        4.9999999997
C                8.4793775785        7.5330040688        4.9999999997
C                9.6244215963        8.1957883964        4.9999999990
C                7.2049782426        9.6472965503        5.0000000021
C                8.4348214886       10.3500204840        5.0000000014
C                5.9760631355       11.7774132172        5.0000000024
C                7.2049783682       12.4746752281        5.0000000000
C                4.7605728317       13.9254887906        4.9999999998
C                5.9760631879       14.5875727772        4.9999999997
C                9.6824940443        9.6386593444        5.0000000015
C               10.8900538384       10.3872121922        5.0000000010
C                8.4348216330       11.7719510662        5.0000000020
C                9.6824940829       12.4833123534        4.9999999967
C                7.1915535927       13.9254888213        4.9999999991
C                8.4793776538       14.5889674660        5.0000000012
C               10.8900539282       11.7347596168        4.9999999966
C                9.6244216536       13.9261835685        4.9999999975
H                1.3416766885        7.6759891404        4.9999999997
H                0.1124538730        9.8050182248        5.0000000008
H                3.5167600761        6.4202710476        4.9999999994
H                0.1124539452       12.3169533685        4.9999999997
H                1.3416767784       14.4459825530        5.0000000002
H                3.5167599791       15.7017005786        5.0000000007
H                8.4353663009        6.4202710514        5.0000000007
H               10.6104495016        7.6759890770        5.0000000002
H               11.8396723348        9.8050182715        4.9999999997
H                8.4353662039       15.7017005824        4.9999999994
H               11.8396724070       12.3169534152        5.0000000008
H               10.6104495915       14.4459824896        4.9999999997
H                5.9760631804        6.4201016598        4.9999999998
H                5.9760630996       15.7018683402        4.9999999998



     Writing config-only to output data dir /home/nihal/Desktop/OtptfGG/gqd_1.save/ :
     XML data file
     NEW-OLD atomic charge density approx. for the potential

     negative rho (up, down):  1.043E-02 0.000E+00

     total cpu time spent up to now is      381.5 secs

     Self-consistent Calculation

     iteration #  1     ecut=    60.00 Ry     beta= 0.30
     Davidson diagonalization with overlap

---- Real-time Memory Report at c_bands before calling an iterative solver
          4547 MiB given to the printing process from OS
             0 MiB allocation reported by mallinfo(arena+hblkhd)
         18602 MiB available memory on the node where the printing process lives
------------------
     ethr =  1.00E-06,  avg # of iterations = 10.0

     negative rho (up, down):  1.034E-02 0.000E+00

     total cpu time spent up to now is      421.0 secs

     total energy              =    -384.00332507 Ry
     estimated scf accuracy    <       0.03740486 Ry

     iteration #  2     ecut=    60.00 Ry     beta= 0.30
     Davidson diagonalization with overlap

---- Real-time Memory Report at c_bands before calling an iterative solver
          4547 MiB given to the printing process from OS
             0 MiB allocation reported by mallinfo(arena+hblkhd)
         17296 MiB available memory on the node where the printing process lives
------------------
     ethr =  2.63E-05,  avg # of iterations =  2.0

     negative rho (up, down):  1.061E-02 0.000E+00

     total cpu time spent up to now is      439.5 secs

     total energy              =    -384.00198103 Ry
     estimated scf accuracy    <       0.00828246 Ry

     iteration #  3     ecut=    60.00 Ry     beta= 0.30
     Davidson diagonalization with overlap

---- Real-time Memory Report at c_bands before calling an iterative solver
          4547 MiB given to the printing process from OS
             0 MiB allocation reported by mallinfo(arena+hblkhd)
         17209 MiB available memory on the node where the printing process lives
------------------
     ethr =  5.83E-06,  avg # of iterations =  4.0

     negative rho (up, down):  1.121E-02 0.000E+00

     total cpu time spent up to now is      460.9 secs

     total energy              =    -384.00300489 Ry
     estimated scf accuracy    <       0.00127496 Ry

     iteration #  4     ecut=    60.00 Ry     beta= 0.30
     Davidson diagonalization with overlap

---- Real-time Memory Report at c_bands before calling an iterative solver
          4547 MiB given to the printing process from OS
             0 MiB allocation reported by mallinfo(arena+hblkhd)
         17356 MiB available memory on the node where the printing process lives
------------------
     ethr =  8.98E-07,  avg # of iterations =  5.0

     negative rho (up, down):  1.090E-02 0.000E+00

     total cpu time spent up to now is      483.4 secs

     total energy              =    -384.00324405 Ry
     estimated scf accuracy    <       0.00053575 Ry

     iteration #  5     ecut=    60.00 Ry     beta= 0.30
     Davidson diagonalization with overlap

---- Real-time Memory Report at c_bands before calling an iterative solver
          4547 MiB given to the printing process from OS
             0 MiB allocation reported by mallinfo(arena+hblkhd)
         17026 MiB available memory on the node where the printing process lives
------------------
     ethr =  3.77E-07,  avg # of iterations =  3.0

     negative rho (up, down):  1.088E-02 0.000E+00

     total cpu time spent up to now is      502.0 secs

     total energy              =    -384.00315564 Ry
     estimated scf accuracy    <       0.00016245 Ry

     iteration #  6     ecut=    60.00 Ry     beta= 0.30
     Davidson diagonalization with overlap

---- Real-time Memory Report at c_bands before calling an iterative solver
          4547 MiB given to the printing process from OS
             0 MiB allocation reported by mallinfo(arena+hblkhd)
         16951 MiB available memory on the node where the printing process lives
------------------
     ethr =  1.14E-07,  avg # of iterations =  6.0

     negative rho (up, down):  1.084E-02 0.000E+00

     total cpu time spent up to now is      526.2 secs

     total energy              =    -384.00325322 Ry
     estimated scf accuracy    <       0.00031734 Ry

     iteration #  7     ecut=    60.00 Ry     beta= 0.30
     Davidson diagonalization with overlap

---- Real-time Memory Report at c_bands before calling an iterative solver
          4547 MiB given to the printing process from OS
             0 MiB allocation reported by mallinfo(arena+hblkhd)
         16858 MiB available memory on the node where the printing process lives
------------------
     ethr =  1.14E-07,  avg # of iterations =  3.0

     negative rho (up, down):  1.086E-02 0.000E+00

     total cpu time spent up to now is      545.1 secs

     total energy              =    -384.00320659 Ry
     estimated scf accuracy    <       0.00010743 Ry

     iteration #  8     ecut=    60.00 Ry     beta= 0.30
     Davidson diagonalization with overlap

---- Real-time Memory Report at c_bands before calling an iterative solver
          4547 MiB given to the printing process from OS
             0 MiB allocation reported by mallinfo(arena+hblkhd)
         16775 MiB available memory on the node where the printing process lives
------------------
     ethr =  7.57E-08,  avg # of iterations =  5.0

     negative rho (up, down):  1.086E-02 0.000E+00

     total cpu time spent up to now is      567.7 secs

     total energy              =    -384.00324625 Ry
     estimated scf accuracy    <       0.00003356 Ry

     iteration #  9     ecut=    60.00 Ry     beta= 0.30
     Davidson diagonalization with overlap

---- Real-time Memory Report at c_bands before calling an iterative solver
          4547 MiB given to the printing process from OS
             0 MiB allocation reported by mallinfo(arena+hblkhd)
         16682 MiB available memory on the node where the printing process lives
------------------
     ethr =  2.36E-08,  avg # of iterations =  5.0

     negative rho (up, down):  1.088E-02 0.000E+00

     total cpu time spent up to now is      587.8 secs

     total energy              =    -384.00324981 Ry
     estimated scf accuracy    <       0.00000180 Ry

     iteration # 10     ecut=    60.00 Ry     beta= 0.30
     Davidson diagonalization with overlap

---- Real-time Memory Report at c_bands before calling an iterative solver
          4547 MiB given to the printing process from OS
             0 MiB allocation reported by mallinfo(arena+hblkhd)
         16599 MiB available memory on the node where the printing process lives
------------------
     ethr =  1.26E-09,  avg # of iterations =  6.0

     negative rho (up, down):  1.089E-02 0.000E+00

     total cpu time spent up to now is      611.5 secs

     total energy              =    -384.00325089 Ry
     estimated scf accuracy    <       0.00000109 Ry

     iteration # 11     ecut=    60.00 Ry     beta= 0.30
     Davidson diagonalization with overlap

---- Real-time Memory Report at c_bands before calling an iterative solver
          4547 MiB given to the printing process from OS
             0 MiB allocation reported by mallinfo(arena+hblkhd)
         16588 MiB available memory on the node where the printing process lives
------------------
     ethr =  7.70E-10,  avg # of iterations =  2.0

     negative rho (up, down):  1.090E-02 0.000E+00

     total cpu time spent up to now is      630.2 secs

     total energy              =    -384.00325071 Ry
     estimated scf accuracy    <       0.00000043 Ry

     iteration # 12     ecut=    60.00 Ry     beta= 0.30
     Davidson diagonalization with overlap

---- Real-time Memory Report at c_bands before calling an iterative solver
          4547 MiB given to the printing process from OS
             0 MiB allocation reported by mallinfo(arena+hblkhd)
         16597 MiB available memory on the node where the printing process lives
------------------
     ethr =  3.00E-10,  avg # of iterations =  5.0

     negative rho (up, down):  1.091E-02 0.000E+00

     total cpu time spent up to now is      652.6 secs

     total energy              =    -384.00325088 Ry
     estimated scf accuracy    <       0.00000033 Ry

     iteration # 13     ecut=    60.00 Ry     beta= 0.30
     Davidson diagonalization with overlap

---- Real-time Memory Report at c_bands before calling an iterative solver
          4547 MiB given to the printing process from OS
             0 MiB allocation reported by mallinfo(arena+hblkhd)
         16604 MiB available memory on the node where the printing process lives
------------------
     ethr =  2.34E-10,  avg # of iterations =  5.0

     negative rho (up, down):  1.093E-02 0.000E+00

     total cpu time spent up to now is      672.5 secs

     End of self-consistent calculation

          k = 0.0000 0.0000 0.0000 (362139 PWs)   bands (ev):

   -22.5458 -21.9116 -21.6295 -21.0210 -20.8876 -20.2987 -19.9710 -19.8058
   -19.4525 -18.9111 -18.5570 -18.3679 -18.1272 -17.8362 -17.5038 -17.1857
   -15.7174 -15.6508 -15.6244 -15.5029 -15.4190 -15.0738 -14.0000 -13.7992
   -13.7545 -13.1788 -13.0095 -12.9847 -12.9278 -12.0973 -11.8044 -11.6953
   -11.6123 -11.4738 -11.2622 -10.8463 -10.5929 -10.5206 -10.4832 -10.4462
   -10.2166 -10.0949  -9.9094  -9.8950  -9.8795  -9.8087  -9.5934  -9.5561
    -9.4741  -9.0871  -9.0334  -8.8820  -8.7515  -8.6111  -8.4064  -8.3377
    -8.1838  -8.1162  -7.7711  -7.6995  -7.5659  -7.3012  -7.2478  -7.0335
    -6.5481  -6.4238  -6.2705  -6.0173  -5.6978  -5.1912  -4.6847

     occupation numbers 
     1.0000   1.0000   1.0000   1.0000   1.0000   1.0000   1.0000   1.0000
     1.0000   1.0000   1.0000   1.0000   1.0000   1.0000   1.0000   1.0000
     1.0000   1.0000   1.0000   1.0000   1.0000   1.0000   1.0000   1.0000
     1.0000   1.0000   1.0000   1.0000   1.0000   1.0000   1.0000   1.0000
     1.0000   1.0000   1.0000   1.0000   1.0000   1.0000   1.0000   1.0000
     1.0000   1.0000   1.0000   1.0000   1.0000   1.0000   1.0000   1.0000
     1.0000   1.0000   1.0000   1.0000   1.0000   1.0000   1.0000   1.0000
     1.0000   1.0000   1.0000   1.0000   1.0000   1.0000   1.0000   1.0000
     1.0000   1.0000   1.0000   1.0000   1.0000   1.0000   1.0000

     highest occupied level (ev):    -4.6847

!    total energy              =    -384.00325098 Ry
     estimated scf accuracy    <          4.7E-09 Ry

     The total energy is the sum of the following terms:
     one-electron contribution =   -3472.84188369 Ry
     hartree contribution      =    1751.68050022 Ry
     xc contribution           =    -125.71874410 Ry
     ewald contribution        =    1462.87687659 Ry

     convergence has been achieved in  13 iterations

     negative rho (up, down):  1.093E-02 0.000E+00

     Forces acting on atoms (cartesian axes, Ry/au):

     atom    1 type  1   force =    -0.11184961    0.05180407    0.00000000
     atom    2 type  1   force =    -0.01437211   -0.09120861    0.00000000
     atom    3 type  1   force =     0.10307072   -0.07239897   -0.00000000
     atom    4 type  1   force =    -0.04386759    0.04162679    0.00000000
     atom    5 type  1   force =     0.02387419    0.00238091    0.00000000
     atom    6 type  1   force =    -0.02497763   -0.00636336   -0.00000000
     atom    7 type  1   force =    -0.01437249    0.09120833   -0.00000000
     atom    8 type  1   force =     0.02387443   -0.00238172   -0.00000000
     atom    9 type  1   force =    -0.00000006   -0.05890371   -0.00000000
     atom   10 type  1   force =     0.04386794    0.04162715    0.00000000
     atom   11 type  1   force =     0.00825423   -0.03778625    0.00000000
     atom   12 type  1   force =    -0.00000008    0.01319757   -0.00000000
     atom   13 type  1   force =    -0.02497759    0.00636245    0.00000000
     atom   14 type  1   force =     0.00825418    0.03778659   -0.00000000
     atom   15 type  1   force =    -0.11184896   -0.05180316    0.00000000
     atom   16 type  1   force =     0.10307052    0.07239824   -0.00000000
     atom   17 type  1   force =    -0.10307052   -0.07239824   -0.00000000
     atom   18 type  1   force =     0.11184896    0.05180316    0.00000000
     atom   19 type  1   force =    -0.00825418   -0.03778659   -0.00000000
     atom   20 type  1   force =     0.02497759   -0.00636245    0.00000000
     atom   21 type  1   force =     0.00000008   -0.01319757   -0.00000000
     atom   22 type  1   force =    -0.00825423    0.03778625    0.00000000
     atom   23 type  1   force =    -0.04386794   -0.04162715    0.00000000
     atom   24 type  1   force =     0.00000006    0.05890371   -0.00000000
     atom   25 type  1   force =    -0.02387443    0.00238172   -0.00000000
     atom   26 type  1   force =     0.01437249   -0.09120833   -0.00000000
     atom   27 type  1   force =     0.02497763    0.00636336   -0.00000000
     atom   28 type  1   force =    -0.02387419   -0.00238091    0.00000000
     atom   29 type  1   force =     0.04386759   -0.04162679    0.00000000
     atom   30 type  1   force =    -0.10307072    0.07239897   -0.00000000
     atom   31 type  1   force =     0.01437211    0.09120861    0.00000000
     atom   32 type  1   force =     0.11184961   -0.05180407    0.00000000
     atom   33 type  2   force =     0.02618750    0.00605567   -0.00000000
     atom   34 type  2   force =     0.01942367    0.01744294   -0.00000000
     atom   35 type  2   force =    -0.00870217    0.02439230    0.00000000
     atom   36 type  2   force =     0.01942374   -0.01744300    0.00000000
     atom   37 type  2   force =     0.02618777   -0.00605572   -0.00000000
     atom   38 type  2   force =    -0.00870233   -0.02439231   -0.00000000
     atom   39 type  2   force =     0.00870233    0.02439231   -0.00000000
     atom   40 type  2   force =    -0.02618777    0.00605572   -0.00000000
     atom   41 type  2   force =    -0.01942374    0.01744300    0.00000000
     atom   42 type  2   force =     0.00870217   -0.02439230    0.00000000
     atom   43 type  2   force =    -0.01942367   -0.01744294   -0.00000000
     atom   44 type  2   force =    -0.02618750   -0.00605567   -0.00000000
     atom   45 type  2   force =     0.00000000    0.02376712   -0.00000000
     atom   46 type  2   force =    -0.00000000   -0.02376712   -0.00000000
     The non-local contrib.  to forces
     atom    1 type  1   force =    -0.08110025    0.07340526    0.00000000
     atom    2 type  1   force =     0.01292513   -0.07187301    0.00000000
     atom    3 type  1   force =     0.10682167   -0.03225323   -0.00000000
     atom    4 type  1   force =    -0.04380945    0.05615655    0.00000000
     atom    5 type  1   force =     0.04218374    0.00371960    0.00000000
     atom    6 type  1   force =     0.00062454    0.00175473   -0.00000000
     atom    7 type  1   force =     0.01292519    0.07187151   -0.00000000
     atom    8 type  1   force =     0.04218383   -0.00372199   -0.00000000
     atom    9 type  1   force =    -0.00000051   -0.02145028   -0.00000000
     atom   10 type  1   force =     0.04380790    0.05615768    0.00000000
     atom   11 type  1   force =     0.00591592   -0.01872562    0.00000000
     atom   12 type  1   force =    -0.00000029    0.02079289   -0.00000000
     atom   13 type  1   force =     0.00062522   -0.00175656    0.00000000
     atom   14 type  1   force =     0.00591586    0.01872545   -0.00000000
     atom   15 type  1   force =    -0.08109768   -0.07340692    0.00000000
     atom   16 type  1   force =     0.10682275    0.03224946   -0.00000000
     atom   17 type  1   force =    -0.10682275   -0.03224946   -0.00000000
     atom   18 type  1   force =     0.08109768    0.07340692    0.00000000
     atom   19 type  1   force =    -0.00591586   -0.01872545   -0.00000000
     atom   20 type  1   force =    -0.00062522    0.00175656    0.00000000
     atom   21 type  1   force =     0.00000029   -0.02079289   -0.00000000
     atom   22 type  1   force =    -0.00591592    0.01872562    0.00000000
     atom   23 type  1   force =    -0.04380790   -0.05615768    0.00000000
     atom   24 type  1   force =     0.00000051    0.02145028   -0.00000000
     atom   25 type  1   force =    -0.04218383    0.00372199   -0.00000000
     atom   26 type  1   force =    -0.01292519   -0.07187151   -0.00000000
     atom   27 type  1   force =    -0.00062454   -0.00175473   -0.00000000
     atom   28 type  1   force =    -0.04218374   -0.00371960    0.00000000
     atom   29 type  1   force =     0.04380945   -0.05615655    0.00000000
     atom   30 type  1   force =    -0.10682167    0.03225323   -0.00000000
     atom   31 type  1   force =    -0.01292513    0.07187301    0.00000000
     atom   32 type  1   force =     0.08110025   -0.07340526    0.00000000
     atom   33 type  2   force =     0.06407992    0.03356805   -0.00000000
     atom   34 type  2   force =     0.06176324    0.03801290   -0.00000000
     atom   35 type  2   force =    -0.00314121    0.07246017    0.00000000
     atom   36 type  2   force =     0.06176339   -0.03801301    0.00000000
     atom   37 type  2   force =     0.06408007   -0.03356826   -0.00000000
     atom   38 type  2   force =    -0.00314091   -0.07246040   -0.00000000
     atom   39 type  2   force =     0.00314091    0.07246040   -0.00000000
     atom   40 type  2   force =    -0.06408007    0.03356826   -0.00000000
     atom   41 type  2   force =    -0.06176339    0.03801301    0.00000000
     atom   42 type  2   force =     0.00314121   -0.07246017    0.00000000
     atom   43 type  2   force =    -0.06176324   -0.03801290   -0.00000000
     atom   44 type  2   force =    -0.06407992   -0.03356805   -0.00000000
     atom   45 type  2   force =    -0.00000013    0.07213534   -0.00000000
     atom   46 type  2   force =     0.00000013   -0.07213534   -0.00000000
     The ionic contribution  to forces
     atom    1 type  1   force =    -9.05164042   -7.63050820   -0.00000003
     atom    2 type  1   force =   -11.29073198   -3.24226668   -0.00000004
     atom    3 type  1   force =    -3.44925439  -11.16528832    0.00000003
     atom    4 type  1   force =    -2.12148308   -7.71249090   -0.00000002
     atom    5 type  1   force =    -7.29640072   -3.93569621   -0.00000004
     atom    6 type  1   force =    -4.12758295   -1.71609565    0.00000004
     atom    7 type  1   force =   -11.29133356    3.25257868    0.00000002
     atom    8 type  1   force =    -7.29875687    3.94498161    0.00000002
     atom    9 type  1   force =     0.00552798  -11.61673064   -0.00000000
     atom   10 type  1   force =     2.12963436   -7.71676768   -0.00000001
     atom   11 type  1   force =    -1.94698087   -3.50800177   -0.00000001
     atom   12 type  1   force =     0.00096983   -1.54270110    0.00000002
     atom   13 type  1   force =    -4.12915756    1.72242860    0.00000001
     atom   14 type  1   force =    -1.95070299    3.51151002    0.00000002
     atom   15 type  1   force =    -9.05687920    7.64185277   -0.00000002
     atom   16 type  1   force =    -3.45825271   11.17483671   -0.00000000
     atom   17 type  1   force =     3.45825251  -11.17483660   -0.00000000
     atom   18 type  1   force =     9.05687913   -7.64185268   -0.00000002
     atom   19 type  1   force =     1.95070291   -3.51151028    0.00000002
     atom   20 type  1   force =     4.12915753   -1.72242871    0.00000001
     atom   21 type  1   force =    -0.00096983    1.54270089    0.00000002
     atom   22 type  1   force =     1.94698095    3.50800152   -0.00000001
     atom   23 type  1   force =    -2.12963487    7.71676736   -0.00000001
     atom   24 type  1   force =    -0.00552798   11.61672538   -0.00000000
     atom   25 type  1   force =     7.29875682   -3.94498171    0.00000002
     atom   26 type  1   force =    11.29133355   -3.25257871    0.00000002
     atom   27 type  1   force =     4.12758298    1.71609554    0.00000004
     atom   28 type  1   force =     7.29640076    3.93569611   -0.00000004
     atom   29 type  1   force =     2.12148359    7.71249058   -0.00000002
     atom   30 type  1   force =     3.44925458   11.16528843    0.00000003
     atom   31 type  1   force =    11.29073200    3.24226665   -0.00000004
     atom   32 type  1   force =     9.05164048    7.63050830   -0.00000003
     atom   33 type  2   force =    -3.44241929   -2.54853149    0.00000000
     atom   34 type  2   force =    -3.93381241   -1.59706738    0.00000001
     atom   35 type  2   force =    -0.76530194   -4.22869654   -0.00000000
     atom   36 type  2   force =    -3.93389304    1.59990228   -0.00000000
     atom   37 type  2   force =    -3.44347141    2.55217488    0.00000000
     atom   38 type  2   force =    -0.76862696    4.23171413    0.00000000
     atom   39 type  2   force =     0.76862696   -4.23171407    0.00000000
     atom   40 type  2   force =     3.44347140   -2.55217487    0.00000000
     atom   41 type  2   force =     3.93389304   -1.59990228   -0.00000000
     atom   42 type  2   force =     0.76530194    4.22869660   -0.00000000
     atom   43 type  2   force =     3.93381242    1.59706738    0.00000001
     atom   44 type  2   force =     3.44241930    2.54853150    0.00000000
     atom   45 type  2   force =     0.00202243   -4.44176224   -0.00000000
     atom   46 type  2   force =    -0.00202243    4.44176878   -0.00000000
     The local contribution  to forces
     atom    1 type  1   force =     9.01795333    7.60992826    0.00000002
     atom    2 type  1   force =    11.26246975    3.22077933    0.00000004
     atom    3 type  1   force =     3.44790909   11.12318126   -0.00000003
     atom    4 type  1   force =     2.12026459    7.69856551    0.00000002
     atom    5 type  1   force =     7.27829766    3.93400343    0.00000004
     atom    6 type  1   force =     4.10178894    1.70791342   -0.00000004
     atom    7 type  1   force =    11.26307078   -3.23109009   -0.00000002
     atom    8 type  1   force =     7.28065412   -3.94328721   -0.00000002
     atom    9 type  1   force =    -0.00552747   11.57751634    0.00000000
     atom   10 type  1   force =    -2.12841395    7.70284159    0.00000001
     atom   11 type  1   force =     1.94926893    3.48837139    0.00000001
     atom   12 type  1   force =    -0.00096955    1.53552763   -0.00000002
     atom   13 type  1   force =     4.10336287   -1.71424546   -0.00000001
     atom   14 type  1   force =     1.95299113   -3.49187894   -0.00000002
     atom   15 type  1   force =     9.02319022   -7.62127029    0.00000002
     atom   16 type  1   force =     3.45690627  -11.13272669    0.00000000
     atom   17 type  1   force =    -3.45690603   11.13272652    0.00000000
     atom   18 type  1   force =    -9.02319011    7.62127018    0.00000002
     atom   19 type  1   force =    -1.95299107    3.49187933   -0.00000002
     atom   20 type  1   force =    -4.10336283    1.71424565   -0.00000001
     atom   21 type  1   force =     0.00096955   -1.53552735   -0.00000002
     atom   22 type  1   force =    -1.94926900   -3.48837100    0.00000001
     atom   23 type  1   force =     2.12841457   -7.70284124    0.00000001
     atom   24 type  1   force =     0.00552747  -11.57751132    0.00000000
     atom   25 type  1   force =    -7.28065404    3.94328733   -0.00000002
     atom   26 type  1   force =   -11.26307075    3.23109014   -0.00000002
     atom   27 type  1   force =    -4.10178897   -1.70791323   -0.00000004
     atom   28 type  1   force =    -7.27829774   -3.93400331    0.00000004
     atom   29 type  1   force =    -2.12026521   -7.69856515    0.00000002
     atom   30 type  1   force =    -3.44790933  -11.12318143   -0.00000003
     atom   31 type  1   force =   -11.26246979   -3.22077928    0.00000004
     atom   32 type  1   force =    -9.01795344   -7.60992836    0.00000003
     atom   33 type  2   force =     3.40452933    2.52101808   -0.00000000
     atom   34 type  2   force =     3.89147471    1.57650199   -0.00000001
     atom   35 type  2   force =     0.75973695    4.18063123    0.00000000
     atom   36 type  2   force =     3.89155529   -1.57933684    0.00000000
     atom   37 type  2   force =     3.40558158   -2.52466132   -0.00000000
     atom   38 type  2   force =     0.76306154   -4.18364861   -0.00000000
     atom   39 type  2   force =    -0.76306155    4.18364853   -0.00000000
     atom   40 type  2   force =    -3.40558157    2.52466131   -0.00000000
     atom   41 type  2   force =    -3.89155528    1.57933684    0.00000000
     atom   42 type  2   force =    -0.75973695   -4.18063131    0.00000000
     atom   43 type  2   force =    -3.89147472   -1.57650199   -0.00000001
     atom   44 type  2   force =    -3.40452935   -2.52101809   -0.00000000
     atom   45 type  2   force =    -0.00202227    4.39338966    0.00000000
     atom   46 type  2   force =     0.00202227   -4.39339408    0.00000000
     The core correction contribution to forces
     atom    1 type  1   force =     0.00293884   -0.00104727    0.00000000
     atom    2 type  1   force =     0.00093879    0.00217053    0.00000000
     atom    3 type  1   force =    -0.00243104    0.00195494   -0.00000000
     atom    4 type  1   force =     0.00113774   -0.00060531    0.00000000
     atom    5 type  1   force =    -0.00022630    0.00035093    0.00000000
     atom    6 type  1   force =     0.00020084    0.00007019   -0.00000000
     atom    7 type  1   force =     0.00093890   -0.00217049   -0.00000000
     atom    8 type  1   force =    -0.00022642   -0.00035090   -0.00000000
     atom    9 type  1   force =    -0.00000001    0.00175258    0.00000000
     atom   10 type  1   force =    -0.00113774   -0.00060541   -0.00000000
     atom   11 type  1   force =     0.00006012    0.00058750   -0.00000000
     atom   12 type  1   force =    -0.00000007   -0.00040259   -0.00000000
     atom   13 type  1   force =     0.00020086   -0.00007009   -0.00000000
     atom   14 type  1   force =     0.00006002   -0.00058751    0.00000000
     atom   15 type  1   force =     0.00293887    0.00104726    0.00000000
     atom   16 type  1   force =    -0.00243111   -0.00195491    0.00000000
     atom   17 type  1   force =     0.00243111    0.00195491    0.00000000
     atom   18 type  1   force =    -0.00293887   -0.00104726    0.00000000
     atom   19 type  1   force =    -0.00006002    0.00058751    0.00000000
     atom   20 type  1   force =    -0.00020086    0.00007009   -0.00000000
     atom   21 type  1   force =     0.00000007    0.00040259   -0.00000000
     atom   22 type  1   force =    -0.00006012   -0.00058749   -0.00000000
     atom   23 type  1   force =     0.00113774    0.00060541    0.00000000
     atom   24 type  1   force =     0.00000001   -0.00175255    0.00000000
     atom   25 type  1   force =     0.00022642    0.00035090   -0.00000000
     atom   26 type  1   force =    -0.00093890    0.00217049   -0.00000000
     atom   27 type  1   force =    -0.00020084   -0.00007019   -0.00000000
     atom   28 type  1   force =     0.00022630   -0.00035093    0.00000000
     atom   29 type  1   force =    -0.00113774    0.00060531    0.00000000
     atom   30 type  1   force =     0.00243104   -0.00195494   -0.00000000
     atom   31 type  1   force =    -0.00093879   -0.00217053    0.00000000
     atom   32 type  1   force =    -0.00293884    0.00104727    0.00000000
     atom   33 type  2   force =     0.00000000    0.00000000    0.00000000
     atom   34 type  2   force =     0.00000000    0.00000000    0.00000000
     atom   35 type  2   force =     0.00000000    0.00000000    0.00000000
     atom   36 type  2   force =     0.00000000    0.00000000    0.00000000
     atom   37 type  2   force =     0.00000000    0.00000000    0.00000000
     atom   38 type  2   force =     0.00000000    0.00000000    0.00000000
     atom   39 type  2   force =     0.00000000    0.00000000    0.00000000
     atom   40 type  2   force =     0.00000000    0.00000000    0.00000000
     atom   41 type  2   force =     0.00000000    0.00000000    0.00000000
     atom   42 type  2   force =     0.00000000    0.00000000    0.00000000
     atom   43 type  2   force =     0.00000000    0.00000000    0.00000000
     atom   44 type  2   force =     0.00000000    0.00000000    0.00000000
     atom   45 type  2   force =     0.00000000    0.00000000    0.00000000
     atom   46 type  2   force =     0.00000000    0.00000000    0.00000000
     The Hubbard contrib.    to forces
     atom    1 type  1   force =     0.00000000    0.00000000    0.00000000
     atom    2 type  1   force =     0.00000000    0.00000000    0.00000000
     atom    3 type  1   force =     0.00000000    0.00000000    0.00000000
     atom    4 type  1   force =     0.00000000    0.00000000    0.00000000
     atom    5 type  1   force =     0.00000000    0.00000000    0.00000000
     atom    6 type  1   force =     0.00000000    0.00000000    0.00000000
     atom    7 type  1   force =     0.00000000    0.00000000    0.00000000
     atom    8 type  1   force =     0.00000000    0.00000000    0.00000000
     atom    9 type  1   force =     0.00000000    0.00000000    0.00000000
     atom   10 type  1   force =     0.00000000    0.00000000    0.00000000
     atom   11 type  1   force =     0.00000000    0.00000000    0.00000000
     atom   12 type  1   force =     0.00000000    0.00000000    0.00000000
     atom   13 type  1   force =     0.00000000    0.00000000    0.00000000
     atom   14 type  1   force =     0.00000000    0.00000000    0.00000000
     atom   15 type  1   force =     0.00000000    0.00000000    0.00000000
     atom   16 type  1   force =     0.00000000    0.00000000    0.00000000
     atom   17 type  1   force =     0.00000000    0.00000000    0.00000000
     atom   18 type  1   force =     0.00000000    0.00000000    0.00000000
     atom   19 type  1   force =     0.00000000    0.00000000    0.00000000
     atom   20 type  1   force =     0.00000000    0.00000000    0.00000000
     atom   21 type  1   force =     0.00000000    0.00000000    0.00000000
     atom   22 type  1   force =     0.00000000    0.00000000    0.00000000
     atom   23 type  1   force =     0.00000000    0.00000000    0.00000000
     atom   24 type  1   force =     0.00000000    0.00000000    0.00000000
     atom   25 type  1   force =     0.00000000    0.00000000    0.00000000
     atom   26 type  1   force =     0.00000000    0.00000000    0.00000000
     atom   27 type  1   force =     0.00000000    0.00000000    0.00000000
     atom   28 type  1   force =     0.00000000    0.00000000    0.00000000
     atom   29 type  1   force =     0.00000000    0.00000000    0.00000000
     atom   30 type  1   force =     0.00000000    0.00000000    0.00000000
     atom   31 type  1   force =     0.00000000    0.00000000    0.00000000
     atom   32 type  1   force =     0.00000000    0.00000000    0.00000000
     atom   33 type  2   force =     0.00000000    0.00000000    0.00000000
     atom   34 type  2   force =     0.00000000    0.00000000    0.00000000
     atom   35 type  2   force =     0.00000000    0.00000000    0.00000000
     atom   36 type  2   force =     0.00000000    0.00000000    0.00000000
     atom   37 type  2   force =     0.00000000    0.00000000    0.00000000
     atom   38 type  2   force =     0.00000000    0.00000000    0.00000000
     atom   39 type  2   force =     0.00000000    0.00000000    0.00000000
     atom   40 type  2   force =     0.00000000    0.00000000    0.00000000
     atom   41 type  2   force =     0.00000000    0.00000000    0.00000000
     atom   42 type  2   force =     0.00000000    0.00000000    0.00000000
     atom   43 type  2   force =     0.00000000    0.00000000    0.00000000
     atom   44 type  2   force =     0.00000000    0.00000000    0.00000000
     atom   45 type  2   force =     0.00000000    0.00000000    0.00000000
     atom   46 type  2   force =     0.00000000    0.00000000    0.00000000
     The SCF correction term to forces
     atom    1 type  1   force =    -0.00000111    0.00002603   -0.00000000
     atom    2 type  1   force =     0.00002620   -0.00001879    0.00000000
     atom    3 type  1   force =     0.00002538    0.00000637   -0.00000000
     atom    4 type  1   force =     0.00002257    0.00000094   -0.00000000
     atom    5 type  1   force =     0.00001981    0.00000316   -0.00000000
     atom    6 type  1   force =    -0.00000900   -0.00000606    0.00000000
     atom    7 type  1   force =     0.00002619    0.00001872   -0.00000000
     atom    8 type  1   force =     0.00001978   -0.00000323   -0.00000000
     atom    9 type  1   force =    -0.00000005    0.00000819   -0.00000000
     atom   10 type  1   force =    -0.00002259    0.00000096    0.00000000
     atom   11 type  1   force =    -0.00000987   -0.00001771    0.00000000
     atom   12 type  1   force =     0.00000001   -0.00001926   -0.00000000
     atom   13 type  1   force =    -0.00000897    0.00000596   -0.00000000
     atom   14 type  1   force =    -0.00000985    0.00001759   -0.00000000
     atom   15 type  1   force =    -0.00000116   -0.00002599    0.00000000
     atom   16 type  1   force =     0.00002532   -0.00000636    0.00000000
     atom   17 type  1   force =    -0.00002536    0.00000638    0.00000000
     atom   18 type  1   force =     0.00000111    0.00002599    0.00000000
     atom   19 type  1   force =     0.00000986   -0.00001767   -0.00000000
     atom   20 type  1   force =     0.00000898   -0.00000604   -0.00000000
     atom   21 type  1   force =    -0.00000001    0.00001920   -0.00000000
     atom   22 type  1   force =     0.00000987    0.00001763    0.00000000
     atom   23 type  1   force =     0.00002256   -0.00000099    0.00000000
     atom   24 type  1   force =     0.00000005   -0.00000817    0.00000000
     atom   25 type  1   force =    -0.00001980    0.00000319    0.00000000
     atom   26 type  1   force =    -0.00002621   -0.00001876   -0.00000000
     atom   27 type  1   force =     0.00000899    0.00000598    0.00000000
     atom   28 type  1   force =    -0.00001978   -0.00000320    0.00000000
     atom   29 type  1   force =    -0.00002254   -0.00000097   -0.00000000
     atom   30 type  1   force =    -0.00002534   -0.00000635   -0.00000000
     atom   31 type  1   force =    -0.00002618    0.00001875    0.00000000
     atom   32 type  1   force =     0.00000116   -0.00002602   -0.00000000
     atom   33 type  2   force =    -0.00000246    0.00000103    0.00000000
     atom   34 type  2   force =    -0.00000187   -0.00000457    0.00000000
     atom   35 type  2   force =     0.00000404   -0.00000255   -0.00000000
     atom   36 type  2   force =    -0.00000190    0.00000457   -0.00000000
     atom   37 type  2   force =    -0.00000248   -0.00000102    0.00000000
     atom   38 type  2   force =     0.00000399    0.00000256    0.00000000
     atom   39 type  2   force =    -0.00000400   -0.00000255    0.00000000
     atom   40 type  2   force =     0.00000247    0.00000102    0.00000000
     atom   41 type  2   force =     0.00000189   -0.00000458   -0.00000000
     atom   42 type  2   force =    -0.00000403    0.00000256   -0.00000000
     atom   43 type  2   force =     0.00000187    0.00000457    0.00000000
     atom   44 type  2   force =     0.00000247   -0.00000103   -0.00000000
     atom   45 type  2   force =    -0.00000002    0.00000543   -0.00000000
     atom   46 type  2   force =     0.00000002   -0.00000540    0.00000000

     Total force =     0.447914     Total SCF correction =     0.000128
     Energy error            =      9.4E-03 Ry
     Gradient error          =      1.1E-01 Ry/Bohr

     number of scf cycles    =   2
     number of bfgs steps    =   1

     energy             old  =    -384.0126872956 Ry
     energy             new  =    -384.0032509802 Ry

     CASE: energy            _new > energy            _old

     new trust radius        =       0.0424787890 bohr
     new conv_thr            =       0.0000000100 Ry


ATOMIC_POSITIONS (angstrom)
C                2.3052002876        8.2091012637        4.9999999988
C                1.0588247891       10.3675581609        4.9999999984
C                3.4961571205        7.5207242246        5.0000000005
C                4.7527312821        8.2094205481        4.9999999996
C                2.2785119836        9.6397643990        4.9999999985
C                3.5166336985       10.3504661136        5.0000000009
C                1.0588248304       11.7544134014        5.0000000005
C                2.2785120013       12.4822072144        5.0000000007
C                5.9760631180        7.5213651807        4.9999999999
C                7.1993949316        8.2094205622        4.9999999999
C                4.7465616678        9.6437337564        5.0000000000
C                5.9760631420       10.3479558769        5.0000000011
C                3.5166337648       11.7715055676        5.0000000006
C                4.7465617255       12.4782378200        5.0000000010
C                2.3052003139       13.9128702124        4.9999999996
C                3.4961571551       14.6012474492        4.9999999999
C                8.4559691249        7.5207241808        4.9999999999
C                9.6469259661        8.2091014176        4.9999999996
C                7.2055645545        9.6437338200        5.0000000010
C                8.4354925152       10.3504660724        5.0000000006
C                5.9760631380       11.7740157631        5.0000000011
C                7.2055646122       12.4782378836        5.0000000000
C                4.7527313484       13.9125510678        4.9999999999
C                5.9760631620       14.6006064493        4.9999999999
C                9.6736142787        9.6397644256        5.0000000007
C               10.8933014496       10.3675582386        5.0000000005
C                8.4354925815       11.7715055264        5.0000000009
C                9.6736142964       12.4822072410        4.9999999985
C                7.1993949979       13.9125510819        4.9999999996
C                8.4559691595       14.6012474054        5.0000000005
C               10.8933014909       11.7544134791        4.9999999984
C                9.6469259924       13.9128703663        4.9999999988
H                1.3419030001        7.6756829051        4.9999999998
H                0.1122601702        9.8054650341        5.0000000004
H                3.5163834304        6.4202767829        4.9999999997
H                0.1122602034       12.3165065844        4.9999999999
H                1.3419030414       14.4462887540        5.0000000001
H                3.5163833858       15.7016948454        5.0000000003
H                8.4357428942        6.4202767846        5.0000000003
H               10.6102232386        7.6756828760        5.0000000001
H               11.8398660766        9.8054650556        4.9999999999
H                8.4357428496       15.7016948471        4.9999999997
H               11.8398661098       12.3165066059        5.0000000004
H               10.6102232799       14.4462887249        4.9999999998
H                5.9760631586        6.4201980403        4.9999999999
H                5.9760631214       15.7017719597        4.9999999999



     Writing config-only to output data dir /home/nihal/Desktop/OtptfGG/gqd_1.save/ :
     XML data file
     NEW-OLD atomic charge density approx. for the potential

     negative rho (up, down):  1.079E-02 0.000E+00

     total cpu time spent up to now is      688.5 secs

     Self-consistent Calculation

     iteration #  1     ecut=    60.00 Ry     beta= 0.30
     Davidson diagonalization with overlap

---- Real-time Memory Report at c_bands before calling an iterative solver
          4547 MiB given to the printing process from OS
             0 MiB allocation reported by mallinfo(arena+hblkhd)
         18602 MiB available memory on the node where the printing process lives
------------------
     ethr =  1.00E-06,  avg # of iterations =  9.0

     negative rho (up, down):  1.076E-02 0.000E+00

     total cpu time spent up to now is      723.5 secs

     total energy              =    -384.03899582 Ry
     estimated scf accuracy    <       0.01114236 Ry

     iteration #  2     ecut=    60.00 Ry     beta= 0.30
     Davidson diagonalization with overlap

---- Real-time Memory Report at c_bands before calling an iterative solver
          4547 MiB given to the printing process from OS
             0 MiB allocation reported by mallinfo(arena+hblkhd)
         17304 MiB available memory on the node where the printing process lives
------------------
     ethr =  7.85E-06,  avg # of iterations =  2.0

     negative rho (up, down):  1.086E-02 0.000E+00

     total cpu time spent up to now is      742.0 secs

     total energy              =    -384.03840032 Ry
     estimated scf accuracy    <       0.00265986 Ry

     iteration #  3     ecut=    60.00 Ry     beta= 0.30
     Davidson diagonalization with overlap

---- Real-time Memory Report at c_bands before calling an iterative solver
          4547 MiB given to the printing process from OS
             0 MiB allocation reported by mallinfo(arena+hblkhd)
         17235 MiB available memory on the node where the printing process lives
------------------
     ethr =  1.87E-06,  avg # of iterations =  4.0

     negative rho (up, down):  1.105E-02 0.000E+00

     total cpu time spent up to now is      763.5 secs

     total energy              =    -384.03873269 Ry
     estimated scf accuracy    <       0.00040357 Ry

     iteration #  4     ecut=    60.00 Ry     beta= 0.30
     Davidson diagonalization with overlap

---- Real-time Memory Report at c_bands before calling an iterative solver
          4547 MiB given to the printing process from OS
             0 MiB allocation reported by mallinfo(arena+hblkhd)
         17124 MiB available memory on the node where the printing process lives
------------------
     ethr =  2.84E-07,  avg # of iterations =  5.0

     negative rho (up, down):  1.095E-02 0.000E+00

     total cpu time spent up to now is      786.5 secs

     total energy              =    -384.03879455 Ry
     estimated scf accuracy    <       0.00032103 Ry

     iteration #  5     ecut=    60.00 Ry     beta= 0.30
     Davidson diagonalization with overlap

---- Real-time Memory Report at c_bands before calling an iterative solver
          4547 MiB given to the printing process from OS
             0 MiB allocation reported by mallinfo(arena+hblkhd)
         17028 MiB available memory on the node where the printing process lives
------------------
     ethr =  2.26E-07,  avg # of iterations =  3.0

     negative rho (up, down):  1.096E-02 0.000E+00

     total cpu time spent up to now is      805.4 secs

     total energy              =    -384.03878832 Ry
     estimated scf accuracy    <       0.00005122 Ry

     iteration #  6     ecut=    60.00 Ry     beta= 0.30
     Davidson diagonalization with overlap

---- Real-time Memory Report at c_bands before calling an iterative solver
          4547 MiB given to the printing process from OS
             0 MiB allocation reported by mallinfo(arena+hblkhd)
         16937 MiB available memory on the node where the printing process lives
------------------
     ethr =  3.61E-08,  avg # of iterations =  6.0

     negative rho (up, down):  1.095E-02 0.000E+00

     total cpu time spent up to now is      829.6 secs

     total energy              =    -384.03882197 Ry
     estimated scf accuracy    <       0.00008410 Ry

     iteration #  7     ecut=    60.00 Ry     beta= 0.30
     Davidson diagonalization with overlap

---- Real-time Memory Report at c_bands before calling an iterative solver
          4547 MiB given to the printing process from OS
             0 MiB allocation reported by mallinfo(arena+hblkhd)
         16863 MiB available memory on the node where the printing process lives
------------------
     ethr =  3.61E-08,  avg # of iterations =  2.0

     negative rho (up, down):  1.096E-02 0.000E+00

     total cpu time spent up to now is      848.4 secs

     total energy              =    -384.03880432 Ry
     estimated scf accuracy    <       0.00003395 Ry

     iteration #  8     ecut=    60.00 Ry     beta= 0.30
     Davidson diagonalization with overlap

---- Real-time Memory Report at c_bands before calling an iterative solver
          4547 MiB given to the printing process from OS
             0 MiB allocation reported by mallinfo(arena+hblkhd)
         16775 MiB available memory on the node where the printing process lives
------------------
     ethr =  2.39E-08,  avg # of iterations =  7.0

     negative rho (up, down):  1.096E-02 0.000E+00

     total cpu time spent up to now is      871.5 secs

     total energy              =    -384.03881700 Ry
     estimated scf accuracy    <       0.00001660 Ry

     iteration #  9     ecut=    60.00 Ry     beta= 0.30
     Davidson diagonalization with overlap

---- Real-time Memory Report at c_bands before calling an iterative solver
          4547 MiB given to the printing process from OS
             0 MiB allocation reported by mallinfo(arena+hblkhd)
         16679 MiB available memory on the node where the printing process lives
------------------
     ethr =  1.17E-08,  avg # of iterations =  5.0

     negative rho (up, down):  1.097E-02 0.000E+00

     total cpu time spent up to now is      891.3 secs

     total energy              =    -384.03881837 Ry
     estimated scf accuracy    <       0.00000116 Ry

     iteration # 10     ecut=    60.00 Ry     beta= 0.30
     Davidson diagonalization with overlap

---- Real-time Memory Report at c_bands before calling an iterative solver
          4547 MiB given to the printing process from OS
             0 MiB allocation reported by mallinfo(arena+hblkhd)
         16593 MiB available memory on the node where the printing process lives
------------------
     ethr =  8.18E-10,  avg # of iterations =  6.0

     negative rho (up, down):  1.098E-02 0.000E+00

     total cpu time spent up to now is      915.9 secs

     total energy              =    -384.03881906 Ry
     estimated scf accuracy    <       0.00000281 Ry

     iteration # 11     ecut=    60.00 Ry     beta= 0.30
     Davidson diagonalization with overlap

---- Real-time Memory Report at c_bands before calling an iterative solver
          4547 MiB given to the printing process from OS
             0 MiB allocation reported by mallinfo(arena+hblkhd)
         16820 MiB available memory on the node where the printing process lives
------------------
     ethr =  8.18E-10,  avg # of iterations =  5.0

     negative rho (up, down):  1.098E-02 0.000E+00

     total cpu time spent up to now is      936.8 secs

     total energy              =    -384.03881930 Ry
     estimated scf accuracy    <       0.00000018 Ry

     iteration # 12     ecut=    60.00 Ry     beta= 0.30
     Davidson diagonalization with overlap

---- Real-time Memory Report at c_bands before calling an iterative solver
          4547 MiB given to the printing process from OS
             0 MiB allocation reported by mallinfo(arena+hblkhd)
         16633 MiB available memory on the node where the printing process lives
------------------
     ethr =  1.28E-10,  avg # of iterations =  5.0

     negative rho (up, down):  1.098E-02 0.000E+00

     total cpu time spent up to now is      958.7 secs

     total energy              =    -384.03881937 Ry
     estimated scf accuracy    <       0.00000001 Ry

     iteration # 13     ecut=    60.00 Ry     beta= 0.30
     Davidson diagonalization with overlap

---- Real-time Memory Report at c_bands before calling an iterative solver
          4547 MiB given to the printing process from OS
             0 MiB allocation reported by mallinfo(arena+hblkhd)
         16595 MiB available memory on the node where the printing process lives
------------------
     ethr =  1.05E-11,  avg # of iterations =  2.0

     negative rho (up, down):  1.098E-02 0.000E+00

     total cpu time spent up to now is      977.3 secs

     total energy              =    -384.03881938 Ry
     estimated scf accuracy    <       0.00000001 Ry

     iteration # 14     ecut=    60.00 Ry     beta= 0.30
     Davidson diagonalization with overlap

---- Real-time Memory Report at c_bands before calling an iterative solver
          4547 MiB given to the printing process from OS
             0 MiB allocation reported by mallinfo(arena+hblkhd)
         16580 MiB available memory on the node where the printing process lives
------------------
     ethr =  7.88E-12,  avg # of iterations =  5.0

     negative rho (up, down):  1.099E-02 0.000E+00

     total cpu time spent up to now is      997.1 secs

     End of self-consistent calculation

          k = 0.0000 0.0000 0.0000 (362139 PWs)   bands (ev):

   -22.5568 -21.9104 -21.6176 -20.9801 -20.8581 -20.2387 -19.8815 -19.7439
   -19.3565 -18.6819 -18.5339 -18.4659 -18.0760 -17.7474 -17.4344 -17.0617
   -15.6932 -15.6848 -15.6746 -15.5138 -15.4216 -15.0295 -14.0161 -13.9173
   -13.7689 -13.2800 -12.9860 -12.9272 -12.9233 -12.0552 -11.8686 -11.5784
   -11.5425 -11.5367 -11.2630 -10.9139 -10.6022 -10.5681 -10.3976 -10.2758
   -10.2697 -10.1073  -9.9877  -9.9366  -9.8763  -9.7478  -9.5716  -9.5085
    -9.2739  -9.2293  -8.9592  -8.8458  -8.7169  -8.6209  -8.6077  -8.3736
    -8.2359  -8.1068  -7.9336  -7.6348  -7.5264  -7.3334  -7.2355  -7.1364
    -6.4958  -6.3711  -6.2690  -5.9198  -5.6096  -5.1605  -4.5764

     occupation numbers 
     1.0000   1.0000   1.0000   1.0000   1.0000   1.0000   1.0000   1.0000
     1.0000   1.0000   1.0000   1.0000   1.0000   1.0000   1.0000   1.0000
     1.0000   1.0000   1.0000   1.0000   1.0000   1.0000   1.0000   1.0000
     1.0000   1.0000   1.0000   1.0000   1.0000   1.0000   1.0000   1.0000
     1.0000   1.0000   1.0000   1.0000   1.0000   1.0000   1.0000   1.0000
     1.0000   1.0000   1.0000   1.0000   1.0000   1.0000   1.0000   1.0000
     1.0000   1.0000   1.0000   1.0000   1.0000   1.0000   1.0000   1.0000
     1.0000   1.0000   1.0000   1.0000   1.0000   1.0000   1.0000   1.0000
     1.0000   1.0000   1.0000   1.0000   1.0000   1.0000   1.0000

     highest occupied level (ev):    -4.5764

!    total energy              =    -384.03881940 Ry
     estimated scf accuracy    <          3.4E-10 Ry

     The total energy is the sum of the following terms:
     one-electron contribution =   -3470.37977658 Ry
     hartree contribution      =    1750.46799182 Ry
     xc contribution           =    -125.63126459 Ry
     ewald contribution        =    1461.50422996 Ry

     convergence has been achieved in  14 iterations

     negative rho (up, down):  1.099E-02 0.000E+00

     Forces acting on atoms (cartesian axes, Ry/au):

     atom    1 type  1   force =     0.00106714   -0.00725848    0.00000000
     atom    2 type  1   force =    -0.00087938    0.00118972    0.00000000
     atom    3 type  1   force =    -0.00696930   -0.00417458   -0.00000000
     atom    4 type  1   force =    -0.00423378   -0.00522883    0.00000000
     atom    5 type  1   force =    -0.00562530   -0.00114246    0.00000000
     atom    6 type  1   force =    -0.01032297   -0.00388841   -0.00000000
     atom    7 type  1   force =    -0.00087947   -0.00118990   -0.00000000
     atom    8 type  1   force =    -0.00562515    0.00114202   -0.00000000
     atom    9 type  1   force =     0.00000002   -0.00214900   -0.00000000
     atom   10 type  1   force =     0.00423414   -0.00522856    0.00000000
     atom   11 type  1   force =     0.00490286   -0.01141621    0.00000000
     atom   12 type  1   force =    -0.00000000   -0.00023908   -0.00000000
     atom   13 type  1   force =    -0.01032293    0.00388804    0.00000000
     atom   14 type  1   force =     0.00490283    0.01141618   -0.00000000
     atom   15 type  1   force =     0.00106738    0.00725863    0.00000000
     atom   16 type  1   force =    -0.00696934    0.00417398   -0.00000000
     atom   17 type  1   force =     0.00696934   -0.00417398   -0.00000000
     atom   18 type  1   force =    -0.00106738   -0.00725863    0.00000000
     atom   19 type  1   force =    -0.00490283   -0.01141618   -0.00000000
     atom   20 type  1   force =     0.01032293   -0.00388804    0.00000000
     atom   21 type  1   force =     0.00000000    0.00023908   -0.00000000
     atom   22 type  1   force =    -0.00490286    0.01141621    0.00000000
     atom   23 type  1   force =    -0.00423414    0.00522856    0.00000000
     atom   24 type  1   force =    -0.00000002    0.00214900   -0.00000000
     atom   25 type  1   force =     0.00562515   -0.00114202   -0.00000000
     atom   26 type  1   force =     0.00087947    0.00118990   -0.00000000
     atom   27 type  1   force =     0.01032297    0.00388841   -0.00000000
     atom   28 type  1   force =     0.00562530    0.00114246    0.00000000
     atom   29 type  1   force =     0.00423378    0.00522883    0.00000000
     atom   30 type  1   force =     0.00696930    0.00417458   -0.00000000
     atom   31 type  1   force =     0.00087938   -0.00118972    0.00000000
     atom   32 type  1   force =    -0.00106714    0.00725848    0.00000000
     atom   33 type  2   force =     0.01195270    0.00370711   -0.00000000
     atom   34 type  2   force =     0.00979763    0.00733792   -0.00000000
     atom   35 type  2   force =    -0.00316430    0.01161632    0.00000000
     atom   36 type  2   force =     0.00979776   -0.00733800    0.00000000
     atom   37 type  2   force =     0.01195280   -0.00370705   -0.00000000
     atom   38 type  2   force =    -0.00316447   -0.01161635   -0.00000000
     atom   39 type  2   force =     0.00316447    0.01161635   -0.00000000
     atom   40 type  2   force =    -0.01195280    0.00370705   -0.00000000
     atom   41 type  2   force =    -0.00979776    0.00733800    0.00000000
     atom   42 type  2   force =     0.00316430   -0.01161632    0.00000000
     atom   43 type  2   force =    -0.00979763   -0.00733792   -0.00000000
     atom   44 type  2   force =    -0.01195270   -0.00370711   -0.00000000
     atom   45 type  2   force =     0.00000006    0.01146544   -0.00000000
     atom   46 type  2   force =    -0.00000006   -0.01146544   -0.00000000
     The non-local contrib.  to forces
     atom    1 type  1   force =    -0.00214023    0.03027463    0.00000000
     atom    2 type  1   force =     0.02162739   -0.00688431    0.00000000
     atom    3 type  1   force =     0.02852737    0.01412220   -0.00000000
     atom    4 type  1   force =    -0.01683046    0.02280008    0.00000000
     atom    5 type  1   force =     0.01765937    0.00187668    0.00000000
     atom    6 type  1   force =     0.00219753    0.00113906   -0.00000000
     atom    7 type  1   force =     0.02162800    0.00688258   -0.00000000
     atom    8 type  1   force =     0.01765938   -0.00187889   -0.00000000
     atom    9 type  1   force =    -0.00000046    0.01991240   -0.00000000
     atom   10 type  1   force =     0.01682877    0.02280118    0.00000000
     atom   11 type  1   force =     0.00418929   -0.00588985    0.00000000
     atom   12 type  1   force =    -0.00000030    0.00978904   -0.00000000
     atom   13 type  1   force =     0.00219827   -0.00114038    0.00000000
     atom   14 type  1   force =     0.00418928    0.00588921   -0.00000000
     atom   15 type  1   force =    -0.00213776   -0.03027714    0.00000000
     atom   16 type  1   force =     0.02852859   -0.01412657   -0.00000000
     atom   17 type  1   force =    -0.02852859    0.01412657   -0.00000000
     atom   18 type  1   force =     0.00213776    0.03027714    0.00000000
     atom   19 type  1   force =    -0.00418928   -0.00588921   -0.00000000
     atom   20 type  1   force =    -0.00219827    0.00114038    0.00000000
     atom   21 type  1   force =     0.00000030   -0.00978904   -0.00000000
     atom   22 type  1   force =    -0.00418929    0.00588985    0.00000000
     atom   23 type  1   force =    -0.01682877   -0.02280118    0.00000000
     atom   24 type  1   force =     0.00000046   -0.01991240   -0.00000000
     atom   25 type  1   force =    -0.01765938    0.00187889   -0.00000000
     atom   26 type  1   force =    -0.02162800   -0.00688258   -0.00000000
     atom   27 type  1   force =    -0.00219753   -0.00113906   -0.00000000
     atom   28 type  1   force =    -0.01765937   -0.00187668    0.00000000
     atom   29 type  1   force =     0.01683046   -0.02280008    0.00000000
     atom   30 type  1   force =    -0.02852737   -0.01412220   -0.00000000
     atom   31 type  1   force =    -0.02162739    0.00688431    0.00000000
     atom   32 type  1   force =     0.00214023   -0.03027463    0.00000000
     atom   33 type  2   force =     0.06570305    0.03669111   -0.00000000
     atom   34 type  2   force =     0.06486533    0.03821801   -0.00000000
     atom   35 type  2   force =    -0.00114677    0.07532225    0.00000000
     atom   36 type  2   force =     0.06486548   -0.03821816    0.00000000
     atom   37 type  2   force =     0.06570320   -0.03669131   -0.00000000
     atom   38 type  2   force =    -0.00114645   -0.07532241   -0.00000000
     atom   39 type  2   force =     0.00114645    0.07532241   -0.00000000
     atom   40 type  2   force =    -0.06570320    0.03669131   -0.00000000
     atom   41 type  2   force =    -0.06486548    0.03821816    0.00000000
     atom   42 type  2   force =     0.00114677   -0.07532225    0.00000000
     atom   43 type  2   force =    -0.06486533   -0.03821801   -0.00000000
     atom   44 type  2   force =    -0.06570305   -0.03669111   -0.00000000
     atom   45 type  2   force =    -0.00000015    0.07499727   -0.00000000
     atom   46 type  2   force =     0.00000015   -0.07499727   -0.00000000
     The ionic contribution  to forces
     atom    1 type  1   force =    -8.74423732   -7.87751718   -0.00000001
     atom    2 type  1   force =   -11.27402940   -2.97770733   -0.00000002
     atom    3 type  1   force =    -3.81373995  -11.04874692    0.00000001
     atom    4 type  1   force =    -1.95497885   -7.71051441   -0.00000001
     atom    5 type  1   force =    -7.24465044   -3.83543850   -0.00000002
     atom    6 type  1   force =    -4.08312267   -1.68272115    0.00000002
     atom    7 type  1   force =   -11.27464759    2.98803307    0.00000001
     atom    8 type  1   force =    -7.24701153    3.84470818    0.00000001
     atom    9 type  1   force =     0.00555440  -11.52114157   -0.00000000
     atom   10 type  1   force =     1.96308047   -7.71480802   -0.00000000
     atom   11 type  1   force =    -1.91073957   -3.41820747   -0.00000001
     atom   12 type  1   force =     0.00096579   -1.58435680    0.00000001
     atom   13 type  1   force =    -4.08469600    1.68905535    0.00000000
     atom   14 type  1   force =    -1.91447128    3.42171784    0.00000001
     atom   15 type  1   force =    -8.74940981    7.88888276   -0.00000001
     atom   16 type  1   force =    -3.82281603   11.05824161   -0.00000000
     atom   17 type  1   force =     3.82281583  -11.05824149   -0.00000000
     atom   18 type  1   force =     8.74940974   -7.88888266   -0.00000001
     atom   19 type  1   force =     1.91447120   -3.42171810    0.00000001
     atom   20 type  1   force =     4.08469597   -1.68905545    0.00000000
     atom   21 type  1   force =    -0.00096579    1.58435659    0.00000001
     atom   22 type  1   force =     1.91073965    3.41820721   -0.00000001
     atom   23 type  1   force =    -1.96308096    7.71480771   -0.00000000
     atom   24 type  1   force =    -0.00555440   11.52113612   -0.00000000
     atom   25 type  1   force =     7.24701149   -3.84470828    0.00000001
     atom   26 type  1   force =    11.27464757   -2.98803310    0.00000001
     atom   27 type  1   force =     4.08312270    1.68272105    0.00000002
     atom   28 type  1   force =     7.24465048    3.83543840   -0.00000002
     atom   29 type  1   force =     1.95497935    7.71051410   -0.00000001
     atom   30 type  1   force =     3.81374015   11.04874703    0.00000001
     atom   31 type  1   force =    11.27402941    2.97770731   -0.00000002
     atom   32 type  1   force =     8.74423738    7.87751728   -0.00000001
     atom   33 type  2   force =    -3.45295508   -2.60207966    0.00000000
     atom   34 type  2   force =    -3.97816413   -1.58998518    0.00000000
     atom   35 type  2   force =    -0.80388197   -4.26178958   -0.00000000
     atom   36 type  2   force =    -3.97824487    1.59282004   -0.00000000
     atom   37 type  2   force =    -3.45400798    2.60572309    0.00000000
     atom   38 type  2   force =    -0.80720661    4.26480733    0.00000000
     atom   39 type  2   force =     0.80720661   -4.26480727    0.00000000
     atom   40 type  2   force =     3.45400797   -2.60572308    0.00000000
     atom   41 type  2   force =     3.97824487   -1.59282004   -0.00000000
     atom   42 type  2   force =     0.80388197    4.26178964   -0.00000000
     atom   43 type  2   force =     3.97816413    1.58998518    0.00000000
     atom   44 type  2   force =     3.45295509    2.60207967    0.00000000
     atom   45 type  2   force =     0.00202224   -4.47791613   -0.00000000
     atom   46 type  2   force =    -0.00202223    4.47792284   -0.00000000
     The local contribution  to forces
     atom    1 type  1   force =     8.74591339    7.84017060    0.00000001
     atom    2 type  1   force =    11.25074024    2.98471857    0.00000002
     atom    3 type  1   force =     3.77921011   11.02924759   -0.00000001
     atom    4 type  1   force =     1.96705826    7.68273352    0.00000001
     atom    5 type  1   force =     7.22144928    3.83223508    0.00000002
     atom    6 type  1   force =     4.07052105    1.67766241   -0.00000002
     atom    7 type  1   force =    11.25135772   -2.99504277   -0.00000001
     atom    8 type  1   force =     7.22381054   -3.84150297   -0.00000001
     atom    9 type  1   force =    -0.00555386   11.49794301    0.00000000
     atom   10 type  1   force =    -1.97515766    7.68702635    0.00000000
     atom   11 type  1   force =     1.91143786    3.41240474    0.00000001
     atom   12 type  1   force =    -0.00096544    1.57452800   -0.00000001
     atom   13 type  1   force =     4.07209365   -1.68399574   -0.00000000
     atom   14 type  1   force =     1.91516963   -3.41591440   -0.00000001
     atom   15 type  1   force =     8.75108382   -7.85153348    0.00000001
     atom   16 type  1   force =     3.78828496  -11.03873860    0.00000000
     atom   17 type  1   force =    -3.78828476   11.03873844    0.00000000
     atom   18 type  1   force =    -8.75108377    7.85153338    0.00000001
     atom   19 type  1   force =    -1.91516955    3.41591470   -0.00000001
     atom   20 type  1   force =    -4.07209361    1.68399585   -0.00000000
     atom   21 type  1   force =     0.00096544   -1.57452779   -0.00000001
     atom   22 type  1   force =    -1.91143793   -3.41240444    0.00000001
     atom   23 type  1   force =     1.97515823   -7.68702604    0.00000000
     atom   24 type  1   force =     0.00555386  -11.49793784    0.00000000
     atom   25 type  1   force =    -7.22381050    3.84150306   -0.00000001
     atom   26 type  1   force =   -11.25135770    2.99504279   -0.00000001
     atom   27 type  1   force =    -4.07052110   -1.67766230   -0.00000002
     atom   28 type  1   force =    -7.22144932   -3.83223499    0.00000002
     atom   29 type  1   force =    -1.96705883   -7.68273321    0.00000001
     atom   30 type  1   force =    -3.77921031  -11.02924774   -0.00000001
     atom   31 type  1   force =   -11.25074026   -2.98471855    0.00000002
     atom   32 type  1   force =    -8.74591344   -7.84017070    0.00000001
     atom   33 type  2   force =     3.39920517    2.56909523   -0.00000000
     atom   34 type  2   force =     3.92309562    1.55910430   -0.00000000
     atom   35 type  2   force =     0.80186519    4.19808494    0.00000000
     atom   36 type  2   force =     3.92317635   -1.56193908    0.00000000
     atom   37 type  2   force =     3.40025804   -2.57273841   -0.00000000
     atom   38 type  2   force =     0.80518933   -4.20110260   -0.00000000
     atom   39 type  2   force =    -0.80518934    4.20110255   -0.00000000
     atom   40 type  2   force =    -3.40025803    2.57273840   -0.00000000
     atom   41 type  2   force =    -3.92317635    1.56193908    0.00000000
     atom   42 type  2   force =    -0.80186518   -4.19808499    0.00000000
     atom   43 type  2   force =    -3.92309562   -1.55910430   -0.00000000
     atom   44 type  2   force =    -3.39920518   -2.56909525   -0.00000000
     atom   45 type  2   force =    -0.00202202    4.41438660    0.00000000
     atom   46 type  2   force =     0.00202202   -4.41439099    0.00000000
     The core correction contribution to forces
     atom    1 type  1   force =     0.00153583   -0.00019260    0.00000000
     atom    2 type  1   force =     0.00077980    0.00106091    0.00000000
     atom    3 type  1   force =    -0.00096267    0.00120006   -0.00000000
     atom    4 type  1   force =     0.00051824   -0.00025663    0.00000000
     atom    5 type  1   force =    -0.00008364    0.00017814    0.00000000
     atom    6 type  1   force =     0.00008165    0.00002765   -0.00000000
     atom    7 type  1   force =     0.00077984   -0.00106086   -0.00000000
     atom    8 type  1   force =    -0.00008371   -0.00017812   -0.00000000
     atom    9 type  1   force =    -0.00000000    0.00113721    0.00000000
     atom   10 type  1   force =    -0.00051825   -0.00025674    0.00000000
     atom   11 type  1   force =     0.00001921    0.00026850    0.00000000
     atom   12 type  1   force =    -0.00000006   -0.00019995   -0.00000000
     atom   13 type  1   force =     0.00008168   -0.00002756   -0.00000000
     atom   14 type  1   force =     0.00001911   -0.00026850   -0.00000000
     atom   15 type  1   force =     0.00153579    0.00019260    0.00000000
     atom   16 type  1   force =    -0.00096266   -0.00119998    0.00000000
     atom   17 type  1   force =     0.00096266    0.00119998    0.00000000
     atom   18 type  1   force =    -0.00153579   -0.00019260    0.00000000
     atom   19 type  1   force =    -0.00001911    0.00026850   -0.00000000
     atom   20 type  1   force =    -0.00008168    0.00002756   -0.00000000
     atom   21 type  1   force =     0.00000006    0.00019995   -0.00000000
     atom   22 type  1   force =    -0.00001921   -0.00026850   -0.00000000
     atom   23 type  1   force =     0.00051825    0.00025674    0.00000000
     atom   24 type  1   force =     0.00000000   -0.00113718    0.00000000
     atom   25 type  1   force =     0.00008371    0.00017812   -0.00000000
     atom   26 type  1   force =    -0.00077984    0.00106086   -0.00000000
     atom   27 type  1   force =    -0.00008165   -0.00002765   -0.00000000
     atom   28 type  1   force =     0.00008364   -0.00017814    0.00000000
     atom   29 type  1   force =    -0.00051824    0.00025663    0.00000000
     atom   30 type  1   force =     0.00096267   -0.00120006   -0.00000000
     atom   31 type  1   force =    -0.00077980   -0.00106091    0.00000000
     atom   32 type  1   force =    -0.00153583    0.00019260    0.00000000
     atom   33 type  2   force =     0.00000000    0.00000000    0.00000000
     atom   34 type  2   force =     0.00000000    0.00000000    0.00000000
     atom   35 type  2   force =     0.00000000    0.00000000    0.00000000
     atom   36 type  2   force =     0.00000000    0.00000000    0.00000000
     atom   37 type  2   force =     0.00000000    0.00000000    0.00000000
     atom   38 type  2   force =     0.00000000    0.00000000    0.00000000
     atom   39 type  2   force =     0.00000000    0.00000000    0.00000000
     atom   40 type  2   force =     0.00000000    0.00000000    0.00000000
     atom   41 type  2   force =     0.00000000    0.00000000    0.00000000
     atom   42 type  2   force =     0.00000000    0.00000000    0.00000000
     atom   43 type  2   force =     0.00000000    0.00000000    0.00000000
     atom   44 type  2   force =     0.00000000    0.00000000    0.00000000
     atom   45 type  2   force =     0.00000000    0.00000000    0.00000000
     atom   46 type  2   force =     0.00000000    0.00000000    0.00000000
     The Hubbard contrib.    to forces
     atom    1 type  1   force =     0.00000000    0.00000000    0.00000000
     atom    2 type  1   force =     0.00000000    0.00000000    0.00000000
     atom    3 type  1   force =     0.00000000    0.00000000    0.00000000
     atom    4 type  1   force =     0.00000000    0.00000000    0.00000000
     atom    5 type  1   force =     0.00000000    0.00000000    0.00000000
     atom    6 type  1   force =     0.00000000    0.00000000    0.00000000
     atom    7 type  1   force =     0.00000000    0.00000000    0.00000000
     atom    8 type  1   force =     0.00000000    0.00000000    0.00000000
     atom    9 type  1   force =     0.00000000    0.00000000    0.00000000
     atom   10 type  1   force =     0.00000000    0.00000000    0.00000000
     atom   11 type  1   force =     0.00000000    0.00000000    0.00000000
     atom   12 type  1   force =     0.00000000    0.00000000    0.00000000
     atom   13 type  1   force =     0.00000000    0.00000000    0.00000000
     atom   14 type  1   force =     0.00000000    0.00000000    0.00000000
     atom   15 type  1   force =     0.00000000    0.00000000    0.00000000
     atom   16 type  1   force =     0.00000000    0.00000000    0.00000000
     atom   17 type  1   force =     0.00000000    0.00000000    0.00000000
     atom   18 type  1   force =     0.00000000    0.00000000    0.00000000
     atom   19 type  1   force =     0.00000000    0.00000000    0.00000000
     atom   20 type  1   force =     0.00000000    0.00000000    0.00000000
     atom   21 type  1   force =     0.00000000    0.00000000    0.00000000
     atom   22 type  1   force =     0.00000000    0.00000000    0.00000000
     atom   23 type  1   force =     0.00000000    0.00000000    0.00000000
     atom   24 type  1   force =     0.00000000    0.00000000    0.00000000
     atom   25 type  1   force =     0.00000000    0.00000000    0.00000000
     atom   26 type  1   force =     0.00000000    0.00000000    0.00000000
     atom   27 type  1   force =     0.00000000    0.00000000    0.00000000
     atom   28 type  1   force =     0.00000000    0.00000000    0.00000000
     atom   29 type  1   force =     0.00000000    0.00000000    0.00000000
     atom   30 type  1   force =     0.00000000    0.00000000    0.00000000
     atom   31 type  1   force =     0.00000000    0.00000000    0.00000000
     atom   32 type  1   force =     0.00000000    0.00000000    0.00000000
     atom   33 type  2   force =     0.00000000    0.00000000    0.00000000
     atom   34 type  2   force =     0.00000000    0.00000000    0.00000000
     atom   35 type  2   force =     0.00000000    0.00000000    0.00000000
     atom   36 type  2   force =     0.00000000    0.00000000    0.00000000
     atom   37 type  2   force =     0.00000000    0.00000000    0.00000000
     atom   38 type  2   force =     0.00000000    0.00000000    0.00000000
     atom   39 type  2   force =     0.00000000    0.00000000    0.00000000
     atom   40 type  2   force =     0.00000000    0.00000000    0.00000000
     atom   41 type  2   force =     0.00000000    0.00000000    0.00000000
     atom   42 type  2   force =     0.00000000    0.00000000    0.00000000
     atom   43 type  2   force =     0.00000000    0.00000000    0.00000000
     atom   44 type  2   force =     0.00000000    0.00000000    0.00000000
     atom   45 type  2   force =     0.00000000    0.00000000    0.00000000
     atom   46 type  2   force =     0.00000000    0.00000000    0.00000000
     The SCF correction term to forces
     atom    1 type  1   force =    -0.00000454    0.00000607   -0.00000000
     atom    2 type  1   force =     0.00000258    0.00000189    0.00000000
     atom    3 type  1   force =    -0.00000418    0.00000247   -0.00000000
     atom    4 type  1   force =    -0.00000100    0.00000862    0.00000000
     atom    5 type  1   force =     0.00000013    0.00000614    0.00000000
     atom    6 type  1   force =    -0.00000054    0.00000363   -0.00000000
     atom    7 type  1   force =     0.00000256   -0.00000193    0.00000000
     atom    8 type  1   force =     0.00000017   -0.00000617   -0.00000000
     atom    9 type  1   force =    -0.00000005   -0.00000017   -0.00000000
     atom   10 type  1   force =     0.00000085    0.00000867    0.00000000
     atom   11 type  1   force =    -0.00000392    0.00000789    0.00000000
     atom   12 type  1   force =    -0.00000001    0.00000064    0.00000000
     atom   13 type  1   force =    -0.00000052   -0.00000362   -0.00000000
     atom   14 type  1   force =    -0.00000391   -0.00000795   -0.00000000
     atom   15 type  1   force =    -0.00000467   -0.00000611   -0.00000000
     atom   16 type  1   force =    -0.00000419   -0.00000251   -0.00000000
     atom   17 type  1   force =     0.00000420    0.00000251    0.00000000
     atom   18 type  1   force =     0.00000468    0.00000611    0.00000000
     atom   19 type  1   force =     0.00000391    0.00000797   -0.00000000
     atom   20 type  1   force =     0.00000052    0.00000364   -0.00000000
     atom   21 type  1   force =     0.00000001   -0.00000062   -0.00000000
     atom   22 type  1   force =     0.00000392   -0.00000787   -0.00000000
     atom   23 type  1   force =    -0.00000084   -0.00000866    0.00000000
     atom   24 type  1   force =     0.00000005    0.00000017    0.00000000
     atom   25 type  1   force =    -0.00000017    0.00000618    0.00000000
     atom   26 type  1   force =    -0.00000256    0.00000194   -0.00000000
     atom   27 type  1   force =     0.00000054   -0.00000361    0.00000000
     atom   28 type  1   force =    -0.00000013   -0.00000613   -0.00000000
     atom   29 type  1   force =     0.00000099   -0.00000860   -0.00000000
     atom   30 type  1   force =     0.00000416   -0.00000247    0.00000000
     atom   31 type  1   force =    -0.00000259   -0.00000188    0.00000000
     atom   32 type  1   force =     0.00000453   -0.00000607    0.00000000
     atom   33 type  2   force =    -0.00000046    0.00000042    0.00000000
     atom   34 type  2   force =     0.00000081    0.00000079   -0.00000000
     atom   35 type  2   force =    -0.00000074   -0.00000129   -0.00000000
     atom   36 type  2   force =     0.00000080   -0.00000080    0.00000000
     atom   37 type  2   force =    -0.00000047   -0.00000042   -0.00000000
     atom   38 type  2   force =    -0.00000074    0.00000134    0.00000000
     atom   39 type  2   force =     0.00000074   -0.00000134   -0.00000000
     atom   40 type  2   force =     0.00000047    0.00000042    0.00000000
     atom   41 type  2   force =    -0.00000080    0.00000080    0.00000000
     atom   42 type  2   force =     0.00000074    0.00000128    0.00000000
     atom   43 type  2   force =    -0.00000081   -0.00000079    0.00000000
     atom   44 type  2   force =     0.00000045   -0.00000042   -0.00000000
     atom   45 type  2   force =    -0.00000001   -0.00000115   -0.00000000
     atom   46 type  2   force =     0.00000001    0.00000114    0.00000000

     Total force =     0.063111     Total SCF correction =     0.000035
     Energy error            =      2.6E-02 Ry
     Gradient error          =      1.2E-02 Ry/Bohr

     number of scf cycles    =   3
     number of bfgs steps    =   1

     energy             old  =    -384.0126872956 Ry
     energy             new  =    -384.0388194003 Ry

     CASE: energy            _new < energy            _old

     new trust radius        =       0.0129760808 bohr
     new conv_thr            =       0.0000000012 Ry


ATOMIC_POSITIONS (angstrom)
C                2.3065475599        8.2046656837        4.9999999990
C                1.0584518497       10.3688763001        4.9999999987
C                3.4915387594        7.5188476951        5.0000000003
C                4.7506720812        8.2061120229        4.9999999997
C                2.2751230680        9.6390997606        4.9999999986
C                3.5109887244       10.3483161640        5.0000000006
C                1.0584518438       11.7530951640        5.0000000003
C                2.2751231689       12.4828716121        5.0000000006
C                5.9760631292        7.5206262660        4.9999999998
C                7.2014543263        8.2061121817        5.0000000000
C                4.7492733460        9.6375863862        5.0000000002
C                5.9760631412       10.3477096668        5.0000000011
C                3.5109888154       11.7736553114        5.0000000008
C                4.7492733858       12.4843851705        5.0000000009
C                2.3065477224       13.9173058670        4.9999999997
C                3.4915387784       14.6031236498        4.9999999998
C                8.4605875016        7.5188479802        4.9999999998
C                9.6455785576        8.2046657630        4.9999999997
C                7.2028528942        9.6375864695        5.0000000009
C                8.4411374646       10.3483163286        5.0000000008
C                5.9760631388       11.7742619732        5.0000000011
C                7.2028529340       12.4843852538        5.0000000002
C                4.7506719537       13.9158594483        5.0000000000
C                5.9760631508       14.6013453640        4.9999999998
C                9.6770031111        9.6391000279        5.0000000006
C               10.8936744362       10.3688764760        5.0000000003
C                8.4411375556       11.7736554760        5.0000000006
C                9.6770032120       12.4828718794        4.9999999986
C                7.2014541988       13.9158596071        4.9999999997
C                8.4605875206       14.6031239349        5.0000000003
C               10.8936744303       11.7530953399        4.9999999987
C                9.6455787201       13.9173059463        4.9999999990
H                1.3484577952        7.6777285999        4.9999999998
H                0.1176459676        9.8094786960        5.0000000002
H                3.5146588589        6.4266543569        4.9999999998
H                0.1176460744       12.3124928802        4.9999999999
H                1.3484578950       14.4442430939        5.0000000001
H                3.5146587226       15.6953172561        5.0000000003
H                8.4374675574        6.4266543739        5.0000000003
H               10.6036683850        7.6777285361        5.0000000001
H               11.8344802056        9.8094787598        4.9999999999
H                8.4374674211       15.6953172731        4.9999999998
H               11.8344803124       12.3124929440        5.0000000002
H               10.6036684848       14.4442430301        4.9999999998
H                5.9760631900        6.4264897104        4.9999999999
H                5.9760630900       15.6954802896        4.9999999999



     Writing config-only to output data dir /home/nihal/Desktop/OtptfGG/gqd_1.save/ :
     XML data file
     NEW-OLD atomic charge density approx. for the potential

     negative rho (up, down):  1.099E-02 0.000E+00

     total cpu time spent up to now is     1013.2 secs

     Self-consistent Calculation

     iteration #  1     ecut=    60.00 Ry     beta= 0.30
     Davidson diagonalization with overlap

---- Real-time Memory Report at c_bands before calling an iterative solver
          4547 MiB given to the printing process from OS
             0 MiB allocation reported by mallinfo(arena+hblkhd)
         18598 MiB available memory on the node where the printing process lives
------------------
     ethr =  1.00E-06,  avg # of iterations =  6.0

     negative rho (up, down):  1.099E-02 0.000E+00

     total cpu time spent up to now is     1041.5 secs

     total energy              =    -384.04095977 Ry
     estimated scf accuracy    <       0.00109765 Ry

     iteration #  2     ecut=    60.00 Ry     beta= 0.30
     Davidson diagonalization with overlap

---- Real-time Memory Report at c_bands before calling an iterative solver
          4547 MiB given to the printing process from OS
             0 MiB allocation reported by mallinfo(arena+hblkhd)
         17294 MiB available memory on the node where the printing process lives
------------------
     ethr =  7.73E-07,  avg # of iterations =  4.0

     negative rho (up, down):  1.099E-02 0.000E+00

     total cpu time spent up to now is     1060.8 secs

     total energy              =    -384.04098133 Ry
     estimated scf accuracy    <       0.00025123 Ry

     iteration #  3     ecut=    60.00 Ry     beta= 0.30
     Davidson diagonalization with overlap

---- Real-time Memory Report at c_bands before calling an iterative solver
          4547 MiB given to the printing process from OS
             0 MiB allocation reported by mallinfo(arena+hblkhd)
         17259 MiB available memory on the node where the printing process lives
------------------
     ethr =  1.77E-07,  avg # of iterations =  4.0

     negative rho (up, down):  1.100E-02 0.000E+00

     total cpu time spent up to now is     1081.5 secs

     total energy              =    -384.04100047 Ry
     estimated scf accuracy    <       0.00005174 Ry

     iteration #  4     ecut=    60.00 Ry     beta= 0.30
     Davidson diagonalization with overlap

---- Real-time Memory Report at c_bands before calling an iterative solver
          4547 MiB given to the printing process from OS
             0 MiB allocation reported by mallinfo(arena+hblkhd)
         17115 MiB available memory on the node where the printing process lives
------------------
     ethr =  3.64E-08,  avg # of iterations =  5.0

     negative rho (up, down):  1.100E-02 0.000E+00

     total cpu time spent up to now is     1101.7 secs

     total energy              =    -384.04100583 Ry
     estimated scf accuracy    <       0.00001200 Ry

     iteration #  5     ecut=    60.00 Ry     beta= 0.30
     Davidson diagonalization with overlap

---- Real-time Memory Report at c_bands before calling an iterative solver
          4547 MiB given to the printing process from OS
             0 MiB allocation reported by mallinfo(arena+hblkhd)
         17031 MiB available memory on the node where the printing process lives
------------------
     ethr =  8.45E-09,  avg # of iterations =  5.0

     negative rho (up, down):  1.100E-02 0.000E+00

     total cpu time spent up to now is     1123.9 secs

     total energy              =    -384.04100808 Ry
     estimated scf accuracy    <       0.00000310 Ry

     iteration #  6     ecut=    60.00 Ry     beta= 0.30
     Davidson diagonalization with overlap

---- Real-time Memory Report at c_bands before calling an iterative solver
          4547 MiB given to the printing process from OS
             0 MiB allocation reported by mallinfo(arena+hblkhd)
         17166 MiB available memory on the node where the printing process lives
------------------
     ethr =  2.18E-09,  avg # of iterations =  4.0

     negative rho (up, down):  1.100E-02 0.000E+00

     total cpu time spent up to now is     1143.1 secs

     total energy              =    -384.04100820 Ry
     estimated scf accuracy    <       0.00000057 Ry

     iteration #  7     ecut=    60.00 Ry     beta= 0.30
     Davidson diagonalization with overlap

---- Real-time Memory Report at c_bands before calling an iterative solver
          4547 MiB given to the printing process from OS
             0 MiB allocation reported by mallinfo(arena+hblkhd)
         16862 MiB available memory on the node where the printing process lives
------------------
     ethr =  4.03E-10,  avg # of iterations =  6.0

     negative rho (up, down):  1.100E-02 0.000E+00

     total cpu time spent up to now is     1166.6 secs

     total energy              =    -384.04100831 Ry
     estimated scf accuracy    <       0.00000047 Ry

     iteration #  8     ecut=    60.00 Ry     beta= 0.30
     Davidson diagonalization with overlap

---- Real-time Memory Report at c_bands before calling an iterative solver
          4547 MiB given to the printing process from OS
             0 MiB allocation reported by mallinfo(arena+hblkhd)
         16768 MiB available memory on the node where the printing process lives
------------------
     ethr =  3.29E-10,  avg # of iterations =  5.0

     negative rho (up, down):  1.100E-02 0.000E+00

     total cpu time spent up to now is     1188.0 secs

     total energy              =    -384.04100845 Ry
     estimated scf accuracy    <       0.00000006 Ry

     iteration #  9     ecut=    60.00 Ry     beta= 0.30
     Davidson diagonalization with overlap

---- Real-time Memory Report at c_bands before calling an iterative solver
          4547 MiB given to the printing process from OS
             0 MiB allocation reported by mallinfo(arena+hblkhd)
         16689 MiB available memory on the node where the printing process lives
------------------
     ethr =  4.44E-11,  avg # of iterations =  5.0

     negative rho (up, down):  1.100E-02 0.000E+00

     total cpu time spent up to now is     1207.5 secs

     total energy              =    -384.04100846 Ry
     estimated scf accuracy    <          9.6E-09 Ry

     iteration # 10     ecut=    60.00 Ry     beta= 0.30
     Davidson diagonalization with overlap

---- Real-time Memory Report at c_bands before calling an iterative solver
          4547 MiB given to the printing process from OS
             0 MiB allocation reported by mallinfo(arena+hblkhd)
         16585 MiB available memory on the node where the printing process lives
------------------
     ethr =  6.76E-12,  avg # of iterations =  5.0

     negative rho (up, down):  1.100E-02 0.000E+00

     total cpu time spent up to now is     1230.2 secs

     total energy              =    -384.04100845 Ry
     estimated scf accuracy    <          1.6E-09 Ry

     iteration # 11     ecut=    60.00 Ry     beta= 0.30
     Davidson diagonalization with overlap

---- Real-time Memory Report at c_bands before calling an iterative solver
          4547 MiB given to the printing process from OS
             0 MiB allocation reported by mallinfo(arena+hblkhd)
         16600 MiB available memory on the node where the printing process lives
------------------
     ethr =  1.14E-12,  avg # of iterations =  4.0

     negative rho (up, down):  1.100E-02 0.000E+00

     total cpu time spent up to now is     1248.8 secs

     End of self-consistent calculation

          k = 0.0000 0.0000 0.0000 (362139 PWs)   bands (ev):

   -22.5264 -21.8884 -21.6146 -20.9858 -20.8566 -20.2288 -19.8893 -19.7499
   -19.3335 -18.6978 -18.5278 -18.4653 -18.0693 -17.7486 -17.4475 -17.0861
   -15.6959 -15.6736 -15.6670 -15.5218 -15.4300 -15.0413 -14.0419 -13.9353
   -13.7629 -13.3091 -12.9969 -12.9454 -12.9182 -12.0603 -11.8558 -11.5963
   -11.5689 -11.5620 -11.2827 -10.9113 -10.5911 -10.5780 -10.4093 -10.3195
   -10.2813 -10.1180  -9.9697  -9.9477  -9.8588  -9.7357  -9.5680  -9.5130
    -9.3061  -9.2328  -8.9857  -8.8500  -8.7166  -8.6268  -8.6066  -8.3847
    -8.2261  -8.0971  -7.9229  -7.6364  -7.5275  -7.3139  -7.2399  -7.1223
    -6.4823  -6.3671  -6.2689  -5.9232  -5.6080  -5.1683  -4.5938

     occupation numbers 
     1.0000   1.0000   1.0000   1.0000   1.0000   1.0000   1.0000   1.0000
     1.0000   1.0000   1.0000   1.0000   1.0000   1.0000   1.0000   1.0000
     1.0000   1.0000   1.0000   1.0000   1.0000   1.0000   1.0000   1.0000
     1.0000   1.0000   1.0000   1.0000   1.0000   1.0000   1.0000   1.0000
     1.0000   1.0000   1.0000   1.0000   1.0000   1.0000   1.0000   1.0000
     1.0000   1.0000   1.0000   1.0000   1.0000   1.0000   1.0000   1.0000
     1.0000   1.0000   1.0000   1.0000   1.0000   1.0000   1.0000   1.0000
     1.0000   1.0000   1.0000   1.0000   1.0000   1.0000   1.0000   1.0000
     1.0000   1.0000   1.0000   1.0000   1.0000   1.0000   1.0000

     highest occupied level (ev):    -4.5938

!    total energy              =    -384.04100846 Ry
     estimated scf accuracy    <          8.6E-10 Ry

     The total energy is the sum of the following terms:
     one-electron contribution =   -3469.26895693 Ry
     hartree contribution      =    1749.93468945 Ry
     xc contribution           =    -125.69220522 Ry
     ewald contribution        =    1460.98546424 Ry

     convergence has been achieved in  11 iterations

     negative rho (up, down):  1.100E-02 0.000E+00

     Forces acting on atoms (cartesian axes, Ry/au):

     atom    1 type  1   force =    -0.00207060    0.00566175    0.00000000
     atom    2 type  1   force =     0.00318185   -0.00049882    0.00000000
     atom    3 type  1   force =     0.00332235    0.00112502   -0.00000000
     atom    4 type  1   force =    -0.00074182   -0.00453864    0.00000000
     atom    5 type  1   force =    -0.00179527   -0.00474772    0.00000000
     atom    6 type  1   force =     0.00148456   -0.00105505   -0.00000000
     atom    7 type  1   force =     0.00318207    0.00049875   -0.00000000
     atom    8 type  1   force =    -0.00179494    0.00474759   -0.00000000
     atom    9 type  1   force =     0.00000028    0.00249527   -0.00000000
     atom   10 type  1   force =     0.00074156   -0.00453860    0.00000000
     atom   11 type  1   force =    -0.00726451    0.00030436    0.00000000
     atom   12 type  1   force =    -0.00000006   -0.00563852   -0.00000000
     atom   13 type  1   force =     0.00148469    0.00105471    0.00000000
     atom   14 type  1   force =    -0.00726464   -0.00030455   -0.00000000
     atom   15 type  1   force =    -0.00207099   -0.00566204    0.00000000
     atom   16 type  1   force =     0.00332210   -0.00112454    0.00000000
     atom   17 type  1   force =    -0.00332210    0.00112454    0.00000000
     atom   18 type  1   force =     0.00207099    0.00566204    0.00000000
     atom   19 type  1   force =     0.00726464    0.00030455   -0.00000000
     atom   20 type  1   force =    -0.00148469   -0.00105471    0.00000000
     atom   21 type  1   force =     0.00000006    0.00563852   -0.00000000
     atom   22 type  1   force =     0.00726451   -0.00030436    0.00000000
     atom   23 type  1   force =    -0.00074156    0.00453860    0.00000000
     atom   24 type  1   force =    -0.00000028   -0.00249527   -0.00000000
     atom   25 type  1   force =     0.00179494   -0.00474759   -0.00000000
     atom   26 type  1   force =    -0.00318207   -0.00049875   -0.00000000
     atom   27 type  1   force =    -0.00148456    0.00105505   -0.00000000
     atom   28 type  1   force =     0.00179527    0.00474772    0.00000000
     atom   29 type  1   force =     0.00074182    0.00453864    0.00000000
     atom   30 type  1   force =    -0.00332235   -0.00112502   -0.00000000
     atom   31 type  1   force =    -0.00318185    0.00049882    0.00000000
     atom   32 type  1   force =     0.00207060   -0.00566175    0.00000000
     atom   33 type  2   force =     0.00366218   -0.00160962   -0.00000000
     atom   34 type  2   force =     0.00259995    0.00370553   -0.00000000
     atom   35 type  2   force =    -0.00359162    0.00128860    0.00000000
     atom   36 type  2   force =     0.00259997   -0.00370554    0.00000000
     atom   37 type  2   force =     0.00366249    0.00160962   -0.00000000
     atom   38 type  2   force =    -0.00359176   -0.00128899   -0.00000000
     atom   39 type  2   force =     0.00359176    0.00128899   -0.00000000
     atom   40 type  2   force =    -0.00366249   -0.00160962   -0.00000000
     atom   41 type  2   force =    -0.00259997    0.00370554    0.00000000
     atom   42 type  2   force =     0.00359162   -0.00128860    0.00000000
     atom   43 type  2   force =    -0.00259995   -0.00370553   -0.00000000
     atom   44 type  2   force =    -0.00366218    0.00160962   -0.00000000
     atom   45 type  2   force =     0.00000007    0.00237463   -0.00000000
     atom   46 type  2   force =    -0.00000007   -0.00237463   -0.00000000
     The non-local contrib.  to forces
     atom    1 type  1   force =    -0.00417421    0.04138267    0.00000000
     atom    2 type  1   force =     0.02547430   -0.00799856    0.00000000
     atom    3 type  1   force =     0.03836098    0.01967426   -0.00000000
     atom    4 type  1   force =    -0.01336088    0.02386050    0.00000000
     atom    5 type  1   force =     0.02069234   -0.00153945    0.00000000
     atom    6 type  1   force =     0.01197712    0.00426213   -0.00000000
     atom    7 type  1   force =     0.02547505    0.00799700   -0.00000000
     atom    8 type  1   force =     0.02069264    0.00153746   -0.00000000
     atom    9 type  1   force =    -0.00000034    0.02333429   -0.00000000
     atom   10 type  1   force =     0.01335872    0.02386140    0.00000000
     atom   11 type  1   force =    -0.00624846    0.00472861    0.00000000
     atom   12 type  1   force =    -0.00000037    0.00703509   -0.00000000
     atom   13 type  1   force =     0.01197793   -0.00426337    0.00000000
     atom   14 type  1   force =    -0.00624861   -0.00472941   -0.00000000
     atom   15 type  1   force =    -0.00417216   -0.04138562    0.00000000
     atom   16 type  1   force =     0.03836196   -0.01967779   -0.00000000
     atom   17 type  1   force =    -0.03836196    0.01967779   -0.00000000
     atom   18 type  1   force =     0.00417216    0.04138562    0.00000000
     atom   19 type  1   force =     0.00624861    0.00472941   -0.00000000
     atom   20 type  1   force =    -0.01197793    0.00426337    0.00000000
     atom   21 type  1   force =     0.00000037   -0.00703509   -0.00000000
     atom   22 type  1   force =     0.00624846   -0.00472861    0.00000000
     atom   23 type  1   force =    -0.01335872   -0.02386140    0.00000000
     atom   24 type  1   force =     0.00000034   -0.02333429   -0.00000000
     atom   25 type  1   force =    -0.02069264   -0.00153746   -0.00000000
     atom   26 type  1   force =    -0.02547505   -0.00799700   -0.00000000
     atom   27 type  1   force =    -0.01197712   -0.00426213   -0.00000000
     atom   28 type  1   force =    -0.02069234    0.00153945    0.00000000
     atom   29 type  1   force =     0.01336088   -0.02386050    0.00000000
     atom   30 type  1   force =    -0.03836098   -0.01967426   -0.00000000
     atom   31 type  1   force =    -0.02547430    0.00799856    0.00000000
     atom   32 type  1   force =     0.00417421   -0.04138267    0.00000000
     atom   33 type  2   force =     0.06720751    0.03720317   -0.00000000
     atom   34 type  2   force =     0.06592224    0.03895184   -0.00000000
     atom   35 type  2   force =    -0.00144514    0.07700358    0.00000000
     atom   36 type  2   force =     0.06592237   -0.03895198    0.00000000
     atom   37 type  2   force =     0.06720766   -0.03720336   -0.00000000
     atom   38 type  2   force =    -0.00144481   -0.07700368   -0.00000000
     atom   39 type  2   force =     0.00144481    0.07700368   -0.00000000
     atom   40 type  2   force =    -0.06720766    0.03720336   -0.00000000
     atom   41 type  2   force =    -0.06592237    0.03895198    0.00000000
     atom   42 type  2   force =     0.00144514   -0.07700358    0.00000000
     atom   43 type  2   force =    -0.06592224   -0.03895184   -0.00000000
     atom   44 type  2   force =    -0.06720751   -0.03720317   -0.00000000
     atom   45 type  2   force =    -0.00000015    0.07641565   -0.00000000
     atom   46 type  2   force =     0.00000015   -0.07641565   -0.00000000
     The ionic contribution  to forces
     atom    1 type  1   force =    -8.74768558   -7.81118000   -0.00000001
     atom    2 type  1   force =   -11.25837746   -2.97880597   -0.00000001
     atom    3 type  1   force =    -3.76631056  -11.02733848    0.00000001
     atom    4 type  1   force =    -1.96284438   -7.72725397   -0.00000001
     atom    5 type  1   force =    -7.24491411   -3.87244227   -0.00000002
     atom    6 type  1   force =    -3.98800083   -1.66374478    0.00000001
     atom    7 type  1   force =   -11.25899419    2.98913213    0.00000001
     atom    8 type  1   force =    -7.24727444    3.88172015    0.00000001
     atom    9 type  1   force =     0.00555754  -11.47863998   -0.00000000
     atom   10 type  1   force =     1.97095382   -7.73155806   -0.00000000
     atom   11 type  1   force =    -1.94411055   -3.35188690   -0.00000000
     atom   12 type  1   force =     0.00096611   -1.54214119    0.00000001
     atom   13 type  1   force =    -3.98957682    1.67009173    0.00000001
     atom   14 type  1   force =    -1.94786016    3.35539099    0.00000001
     atom   15 type  1   force =    -8.75287307    7.82254982   -0.00000001
     atom   16 type  1   force =    -3.77538507   11.03685516   -0.00000000
     atom   17 type  1   force =     3.77538487  -11.03685505   -0.00000000
     atom   18 type  1   force =     8.75287301   -7.82254972   -0.00000001
     atom   19 type  1   force =     1.94786007   -3.35539125    0.00000001
     atom   20 type  1   force =     3.98957679   -1.67009184    0.00000001
     atom   21 type  1   force =    -0.00096611    1.54214098    0.00000001
     atom   22 type  1   force =     1.94411063    3.35188664   -0.00000000
     atom   23 type  1   force =    -1.97095432    7.73155775   -0.00000000
     atom   24 type  1   force =    -0.00555754   11.47863442   -0.00000000
     atom   25 type  1   force =     7.24727440   -3.88172025    0.00000001
     atom   26 type  1   force =    11.25899418   -2.98913215    0.00000001
     atom   27 type  1   force =     3.98800086    1.66374468    0.00000001
     atom   28 type  1   force =     7.24491415    3.87244217   -0.00000002
     atom   29 type  1   force =     1.96284489    7.72725366   -0.00000001
     atom   30 type  1   force =     3.76631076   11.02733859    0.00000001
     atom   31 type  1   force =    11.25837747    2.97880594   -0.00000001
     atom   32 type  1   force =     8.74768564    7.81118009   -0.00000001
     atom   33 type  2   force =    -3.48554686   -2.61380485    0.00000000
     atom   34 type  2   force =    -4.00307699   -1.60450469    0.00000000
     atom   35 type  2   force =    -0.79859707   -4.29757468   -0.00000000
     atom   36 type  2   force =    -4.00315873    1.60733853   -0.00000000
     atom   37 type  2   force =    -3.48660281    2.61744398    0.00000000
     atom   38 type  2   force =    -0.80191411    4.30058891    0.00000000
     atom   39 type  2   force =     0.80191411   -4.30058885    0.00000000
     atom   40 type  2   force =     3.48660280   -2.61744397    0.00000000
     atom   41 type  2   force =     4.00315872   -1.60733853   -0.00000000
     atom   42 type  2   force =     0.79859707    4.29757474   -0.00000000
     atom   43 type  2   force =     4.00307699    1.60450468    0.00000000
     atom   44 type  2   force =     3.48554687    2.61380486    0.00000000
     atom   45 type  2   force =     0.00201839   -4.50633303   -0.00000000
     atom   46 type  2   force =    -0.00201838    4.50633984   -0.00000000
     The local contribution  to forces
     atom    1 type  1   force =     8.74823664    7.77587542    0.00000001
     atom    2 type  1   force =    11.23537554    2.98525803    0.00000001
     atom    3 type  1   force =     3.73240310   11.00767933   -0.00000001
     atom    4 type  1   force =     1.97493877    7.69903174    0.00000001
     atom    5 type  1   force =     7.22248319    3.86892996    0.00000002
     atom    6 type  1   force =     3.97763334    1.65843024   -0.00000001
     atom    7 type  1   force =    11.23599170   -2.99558275   -0.00000001
     atom    8 type  1   force =     7.22484364   -3.87820601   -0.00000001
     atom    9 type  1   force =    -0.00555692   11.45678911    0.00000000
     atom   10 type  1   force =    -1.98304628    7.70333508    0.00000000
     atom   11 type  1   force =     1.94291147    3.34735440    0.00000000
     atom   12 type  1   force =    -0.00096575    1.52967877   -0.00000001
     atom   13 type  1   force =     3.97920864   -1.66477636   -0.00000001
     atom   14 type  1   force =     1.94666118   -3.35085783   -0.00000001
     atom   15 type  1   force =     8.75342173   -7.78724253    0.00000001
     atom   16 type  1   force =     3.74147636  -11.01719213    0.00000000
     atom   17 type  1   force =    -3.74147616   11.01719198    0.00000000
     atom   18 type  1   force =    -8.75342167    7.78724243    0.00000001
     atom   19 type  1   force =    -1.94666110    3.35085815   -0.00000001
     atom   20 type  1   force =    -3.97920859    1.66477649   -0.00000001
     atom   21 type  1   force =     0.00096576   -1.52967854   -0.00000001
     atom   22 type  1   force =    -1.94291155   -3.34735408    0.00000000
     atom   23 type  1   force =     1.98304687   -7.70333476    0.00000000
     atom   24 type  1   force =     0.00555692  -11.45678389    0.00000000
     atom   25 type  1   force =    -7.22484359    3.87820610   -0.00000001
     atom   26 type  1   force =   -11.23599168    2.99558278   -0.00000001
     atom   27 type  1   force =    -3.97763339   -1.65843011   -0.00000001
     atom   28 type  1   force =    -7.22248324   -3.86892986    0.00000002
     atom   29 type  1   force =    -1.97493936   -7.69903142    0.00000001
     atom   30 type  1   force =    -3.73240330  -11.00767948   -0.00000001
     atom   31 type  1   force =   -11.23537555   -2.98525800    0.00000001
     atom   32 type  1   force =    -8.74823670   -7.77587552    0.00000001
     atom   33 type  2   force =     3.42200242    2.57499198   -0.00000000
     atom   34 type  2   force =     3.93975574    1.56925937   -0.00000000
     atom   35 type  2   force =     0.79644987    4.22186047    0.00000000
     atom   36 type  2   force =     3.93983735   -1.57209307    0.00000000
     atom   37 type  2   force =     3.42305851   -2.57863091   -0.00000000
     atom   38 type  2   force =     0.79976643   -4.22487499   -0.00000000
     atom   39 type  2   force =    -0.79976643    4.22487493   -0.00000000
     atom   40 type  2   force =    -3.42305850    2.57863090   -0.00000000
     atom   41 type  2   force =    -3.93983735    1.57209308    0.00000000
     atom   42 type  2   force =    -0.79644987   -4.22186054    0.00000000
     atom   43 type  2   force =    -3.93975575   -1.56925937   -0.00000000
     atom   44 type  2   force =    -3.42200242   -2.57499199   -0.00000000
     atom   45 type  2   force =    -0.00201817    4.43229351    0.00000000
     atom   46 type  2   force =     0.00201817   -4.43229793    0.00000000
     The core correction contribution to forces
     atom    1 type  1   force =     0.00154941   -0.00042387    0.00000000
     atom    2 type  1   force =     0.00070433    0.00105030    0.00000000
     atom    3 type  1   force =    -0.00113728    0.00110397   -0.00000000
     atom    4 type  1   force =     0.00052286   -0.00019139    0.00000000
     atom    5 type  1   force =    -0.00007121    0.00030095    0.00000000
     atom    6 type  1   force =    -0.00014320   -0.00000935   -0.00000000
     atom    7 type  1   force =     0.00070437   -0.00105025   -0.00000000
     atom    8 type  1   force =    -0.00007132   -0.00030093   -0.00000000
     atom    9 type  1   force =    -0.00000000    0.00100324    0.00000000
     atom   10 type  1   force =    -0.00052288   -0.00019149    0.00000000
     atom   11 type  1   force =     0.00018040    0.00009165   -0.00000000
     atom   12 type  1   force =    -0.00000005   -0.00022145   -0.00000000
     atom   13 type  1   force =    -0.00014314    0.00000940   -0.00000000
     atom   14 type  1   force =     0.00018032   -0.00009163   -0.00000000
     atom   15 type  1   force =     0.00154934    0.00042386    0.00000000
     atom   16 type  1   force =    -0.00113727   -0.00110391    0.00000000
     atom   17 type  1   force =     0.00113727    0.00110391    0.00000000
     atom   18 type  1   force =    -0.00154934   -0.00042386    0.00000000
     atom   19 type  1   force =    -0.00018032    0.00009163   -0.00000000
     atom   20 type  1   force =     0.00014314   -0.00000940   -0.00000000
     atom   21 type  1   force =     0.00000005    0.00022145   -0.00000000
     atom   22 type  1   force =    -0.00018040   -0.00009165   -0.00000000
     atom   23 type  1   force =     0.00052288    0.00019149    0.00000000
     atom   24 type  1   force =     0.00000000   -0.00100321    0.00000000
     atom   25 type  1   force =     0.00007132    0.00030093   -0.00000000
     atom   26 type  1   force =    -0.00070437    0.00105025   -0.00000000
     atom   27 type  1   force =     0.00014320    0.00000935   -0.00000000
     atom   28 type  1   force =     0.00007121   -0.00030095    0.00000000
     atom   29 type  1   force =    -0.00052286    0.00019139    0.00000000
     atom   30 type  1   force =     0.00113728   -0.00110397   -0.00000000
     atom   31 type  1   force =    -0.00070433   -0.00105030    0.00000000
     atom   32 type  1   force =    -0.00154941    0.00042387    0.00000000
     atom   33 type  2   force =     0.00000000    0.00000000    0.00000000
     atom   34 type  2   force =     0.00000000    0.00000000    0.00000000
     atom   35 type  2   force =     0.00000000    0.00000000    0.00000000
     atom   36 type  2   force =     0.00000000    0.00000000    0.00000000
     atom   37 type  2   force =     0.00000000    0.00000000    0.00000000
     atom   38 type  2   force =     0.00000000    0.00000000    0.00000000
     atom   39 type  2   force =     0.00000000    0.00000000    0.00000000
     atom   40 type  2   force =     0.00000000    0.00000000    0.00000000
     atom   41 type  2   force =     0.00000000    0.00000000    0.00000000
     atom   42 type  2   force =     0.00000000    0.00000000    0.00000000
     atom   43 type  2   force =     0.00000000    0.00000000    0.00000000
     atom   44 type  2   force =     0.00000000    0.00000000    0.00000000
     atom   45 type  2   force =     0.00000000    0.00000000    0.00000000
     atom   46 type  2   force =     0.00000000    0.00000000    0.00000000
     The Hubbard contrib.    to forces
     atom    1 type  1   force =     0.00000000    0.00000000    0.00000000
     atom    2 type  1   force =     0.00000000    0.00000000    0.00000000
     atom    3 type  1   force =     0.00000000    0.00000000    0.00000000
     atom    4 type  1   force =     0.00000000    0.00000000    0.00000000
     atom    5 type  1   force =     0.00000000    0.00000000    0.00000000
     atom    6 type  1   force =     0.00000000    0.00000000    0.00000000
     atom    7 type  1   force =     0.00000000    0.00000000    0.00000000
     atom    8 type  1   force =     0.00000000    0.00000000    0.00000000
     atom    9 type  1   force =     0.00000000    0.00000000    0.00000000
     atom   10 type  1   force =     0.00000000    0.00000000    0.00000000
     atom   11 type  1   force =     0.00000000    0.00000000    0.00000000
     atom   12 type  1   force =     0.00000000    0.00000000    0.00000000
     atom   13 type  1   force =     0.00000000    0.00000000    0.00000000
     atom   14 type  1   force =     0.00000000    0.00000000    0.00000000
     atom   15 type  1   force =     0.00000000    0.00000000    0.00000000
     atom   16 type  1   force =     0.00000000    0.00000000    0.00000000
     atom   17 type  1   force =     0.00000000    0.00000000    0.00000000
     atom   18 type  1   force =     0.00000000    0.00000000    0.00000000
     atom   19 type  1   force =     0.00000000    0.00000000    0.00000000
     atom   20 type  1   force =     0.00000000    0.00000000    0.00000000
     atom   21 type  1   force =     0.00000000    0.00000000    0.00000000
     atom   22 type  1   force =     0.00000000    0.00000000    0.00000000
     atom   23 type  1   force =     0.00000000    0.00000000    0.00000000
     atom   24 type  1   force =     0.00000000    0.00000000    0.00000000
     atom   25 type  1   force =     0.00000000    0.00000000    0.00000000
     atom   26 type  1   force =     0.00000000    0.00000000    0.00000000
     atom   27 type  1   force =     0.00000000    0.00000000    0.00000000
     atom   28 type  1   force =     0.00000000    0.00000000    0.00000000
     atom   29 type  1   force =     0.00000000    0.00000000    0.00000000
     atom   30 type  1   force =     0.00000000    0.00000000    0.00000000
     atom   31 type  1   force =     0.00000000    0.00000000    0.00000000
     atom   32 type  1   force =     0.00000000    0.00000000    0.00000000
     atom   33 type  2   force =     0.00000000    0.00000000    0.00000000
     atom   34 type  2   force =     0.00000000    0.00000000    0.00000000
     atom   35 type  2   force =     0.00000000    0.00000000    0.00000000
     atom   36 type  2   force =     0.00000000    0.00000000    0.00000000
     atom   37 type  2   force =     0.00000000    0.00000000    0.00000000
     atom   38 type  2   force =     0.00000000    0.00000000    0.00000000
     atom   39 type  2   force =     0.00000000    0.00000000    0.00000000
     atom   40 type  2   force =     0.00000000    0.00000000    0.00000000
     atom   41 type  2   force =     0.00000000    0.00000000    0.00000000
     atom   42 type  2   force =     0.00000000    0.00000000    0.00000000
     atom   43 type  2   force =     0.00000000    0.00000000    0.00000000
     atom   44 type  2   force =     0.00000000    0.00000000    0.00000000
     atom   45 type  2   force =     0.00000000    0.00000000    0.00000000
     atom   46 type  2   force =     0.00000000    0.00000000    0.00000000
     The SCF correction term to forces
     atom    1 type  1   force =     0.00000315    0.00000753    0.00000000
     atom    2 type  1   force =     0.00000514   -0.00000262    0.00000000
     atom    3 type  1   force =     0.00000611    0.00000592    0.00000000
     atom    4 type  1   force =     0.00000177    0.00001448    0.00000000
     atom    5 type  1   force =     0.00001451    0.00000308   -0.00000000
     atom    6 type  1   force =     0.00001812    0.00000672   -0.00000000
     atom    7 type  1   force =     0.00000515    0.00000262   -0.00000000
     atom    8 type  1   force =     0.00001455   -0.00000309    0.00000000
     atom    9 type  1   force =    -0.00000000    0.00000846    0.00000000
     atom   10 type  1   force =    -0.00000176    0.00001448    0.00000000
     atom   11 type  1   force =     0.00000263    0.00001662    0.00000000
     atom   12 type  1   force =     0.00000000    0.00001027   -0.00000000
     atom   13 type  1   force =     0.00001808   -0.00000669   -0.00000000
     atom   14 type  1   force =     0.00000262   -0.00001663   -0.00000000
     atom   15 type  1   force =     0.00000316   -0.00000757   -0.00000000
     atom   16 type  1   force =     0.00000612   -0.00000590   -0.00000000
     atom   17 type  1   force =    -0.00000612    0.00000590    0.00000000
     atom   18 type  1   force =    -0.00000316    0.00000757    0.00000000
     atom   19 type  1   force =    -0.00000262    0.00001663    0.00000000
     atom   20 type  1   force =    -0.00001808    0.00000669    0.00000000
     atom   21 type  1   force =    -0.00000000   -0.00001027    0.00000000
     atom   22 type  1   force =    -0.00000263   -0.00001662   -0.00000000
     atom   23 type  1   force =     0.00000176   -0.00001448   -0.00000000
     atom   24 type  1   force =     0.00000000   -0.00000846   -0.00000000
     atom   25 type  1   force =    -0.00001455    0.00000309    0.00000000
     atom   26 type  1   force =    -0.00000515   -0.00000262   -0.00000000
     atom   27 type  1   force =    -0.00001812   -0.00000672    0.00000000
     atom   28 type  1   force =    -0.00001451   -0.00000308    0.00000000
     atom   29 type  1   force =    -0.00000177   -0.00001448   -0.00000000
     atom   30 type  1   force =    -0.00000611   -0.00000592    0.00000000
     atom   31 type  1   force =    -0.00000514    0.00000262    0.00000000
     atom   32 type  1   force =    -0.00000315   -0.00000753    0.00000000
     atom   33 type  2   force =    -0.00000089    0.00000008    0.00000000
     atom   34 type  2   force =    -0.00000104   -0.00000100   -0.00000000
     atom   35 type  2   force =     0.00000072   -0.00000077   -0.00000000
     atom   36 type  2   force =    -0.00000103    0.00000099    0.00000000
     atom   37 type  2   force =    -0.00000087   -0.00000010   -0.00000000
     atom   38 type  2   force =     0.00000073    0.00000077   -0.00000000
     atom   39 type  2   force =    -0.00000073   -0.00000077   -0.00000000
     atom   40 type  2   force =     0.00000087    0.00000010    0.00000000
     atom   41 type  2   force =     0.00000103   -0.00000099    0.00000000
     atom   42 type  2   force =    -0.00000072    0.00000077   -0.00000000
     atom   43 type  2   force =     0.00000104    0.00000100    0.00000000
     atom   44 type  2   force =     0.00000089   -0.00000008    0.00000000
     atom   45 type  2   force =     0.00000000   -0.00000030    0.00000000
     atom   46 type  2   force =    -0.00000000    0.00000030    0.00000000

     Total force =     0.030660     Total SCF correction =     0.000074
     Energy error            =      2.2E-03 Ry
     Gradient error          =      7.3E-03 Ry/Bohr

     number of scf cycles    =   4
     number of bfgs steps    =   2

     energy             old  =    -384.0388194003 Ry
     energy             new  =    -384.0410084593 Ry

     CASE: energy            _new < energy            _old

     new trust radius        =       0.0074753483 bohr
     new conv_thr            =       0.0000000007 Ry


ATOMIC_POSITIONS (angstrom)
C                2.3060846457        8.2065656822        4.9999999991
C                1.0601755880       10.3692255744        4.9999999989
C                3.4919401220        7.5192498882        5.0000000000
C                4.7499303493        8.2026503415        4.9999999998
C                2.2732228295        9.6363151623        4.9999999988
C                3.5105473328       10.3472433050        5.0000000003
C                1.0601756944       11.7527458258        5.0000000001
C                2.2732231329       12.4856560837        5.0000000005
C                5.9760632848        7.5220522829        4.9999999998
C                7.2021959556        8.2026505577        5.0000000001
C                4.7458899202        9.6364296473        5.0000000003
C                5.9760631071       10.3444901317        5.0000000011
C                3.5105475066       11.7747279345        5.0000000009
C                4.7458898814       12.4855417984        5.0000000008
C                2.3060846225       13.9154057209        4.9999999999
C                3.4919400009       14.6027216432        4.9999999998
C                8.4601862791        7.5192499868        4.9999999998
C                9.6460416575        8.2065659091        4.9999999999
C                7.2062363986        9.6364298416        5.0000000008
C                8.4415787734       10.3472437055        5.0000000009
C                5.9760631729       11.7774815083        5.0000000011
C                7.2062363598       12.4855419927        5.0000000003
C                4.7499303244       13.9193210723        5.0000000001
C                5.9760629952       14.5999193471        4.9999999998
C                9.6789031471        9.6363155563        5.0000000005
C               10.8919505856       10.3692258142        5.0000000001
C                8.4415789472       11.7747283350        5.0000000003
C                9.6789034505       12.4856564777        4.9999999988
C                7.2021959307       13.9193212885        4.9999999998
C                8.4601861580       14.6027217418        5.0000000000
C               10.8919506920       11.7527460656        4.9999999989
C                9.6460416343       13.9154059478        4.9999999991
H                1.3519478780        7.6773071123        4.9999999997
H                0.1202944795        9.8124169620        5.0000000001
H                3.5122974989        6.4288000931        4.9999999999
H                0.1202946111       12.3095546018        5.0000000000
H                1.3519481592       14.4446645886        5.0000000000
H                3.5122972666       15.6931713058        5.0000000002
H                8.4398290134        6.4288003242        5.0000000002
H               10.6001781208        7.6773070414        5.0000000000
H               11.8318316689        9.8124170382        5.0000000000
H                8.4398287811       15.6931715369        4.9999999999
H               11.8318318005       12.3095546780        5.0000000001
H               10.6001784020       14.4446645177        4.9999999997
H                5.9760632358        6.4292131293        4.9999999999
H                5.9760630442       15.6927568707        4.9999999999



     Writing config-only to output data dir /home/nihal/Desktop/OtptfGG/gqd_1.save/ :
     XML data file
     NEW-OLD atomic charge density approx. for the potential

     negative rho (up, down):  1.101E-02 0.000E+00

     total cpu time spent up to now is     1265.0 secs

     Self-consistent Calculation

     iteration #  1     ecut=    60.00 Ry     beta= 0.30
     Davidson diagonalization with overlap

---- Real-time Memory Report at c_bands before calling an iterative solver
          4547 MiB given to the printing process from OS
             0 MiB allocation reported by mallinfo(arena+hblkhd)
         18688 MiB available memory on the node where the printing process lives
------------------
     ethr =  1.00E-06,  avg # of iterations =  5.0

     negative rho (up, down):  1.101E-02 0.000E+00

     total cpu time spent up to now is     1289.9 secs

     total energy              =    -384.04150991 Ry
     estimated scf accuracy    <       0.00020185 Ry

     iteration #  2     ecut=    60.00 Ry     beta= 0.30
     Davidson diagonalization with overlap

---- Real-time Memory Report at c_bands before calling an iterative solver
          4547 MiB given to the printing process from OS
             0 MiB allocation reported by mallinfo(arena+hblkhd)
         17479 MiB available memory on the node where the printing process lives
------------------
     ethr =  1.42E-07,  avg # of iterations =  5.0

     negative rho (up, down):  1.101E-02 0.000E+00

     total cpu time spent up to now is     1309.9 secs

     total energy              =    -384.04151681 Ry
     estimated scf accuracy    <       0.00006547 Ry

     iteration #  3     ecut=    60.00 Ry     beta= 0.30
     Davidson diagonalization with overlap

---- Real-time Memory Report at c_bands before calling an iterative solver
          4547 MiB given to the printing process from OS
             0 MiB allocation reported by mallinfo(arena+hblkhd)
         17491 MiB available memory on the node where the printing process lives
------------------
     ethr =  4.61E-08,  avg # of iterations =  2.0

     negative rho (up, down):  1.102E-02 0.000E+00

     total cpu time spent up to now is     1329.7 secs

     total energy              =    -384.04152069 Ry
     estimated scf accuracy    <       0.00001143 Ry

     iteration #  4     ecut=    60.00 Ry     beta= 0.30
     Davidson diagonalization with overlap

---- Real-time Memory Report at c_bands before calling an iterative solver
          4547 MiB given to the printing process from OS
             0 MiB allocation reported by mallinfo(arena+hblkhd)
         17136 MiB available memory on the node where the printing process lives
------------------
     ethr =  8.05E-09,  avg # of iterations =  5.0

     negative rho (up, down):  1.102E-02 0.000E+00

     total cpu time spent up to now is     1350.7 secs

     total energy              =    -384.04152190 Ry
     estimated scf accuracy    <       0.00000217 Ry

     iteration #  5     ecut=    60.00 Ry     beta= 0.30
     Davidson diagonalization with overlap

---- Real-time Memory Report at c_bands before calling an iterative solver
          4547 MiB given to the printing process from OS
             0 MiB allocation reported by mallinfo(arena+hblkhd)
         17035 MiB available memory on the node where the printing process lives
------------------
     ethr =  1.53E-09,  avg # of iterations =  5.0

     negative rho (up, down):  1.102E-02 0.000E+00

     total cpu time spent up to now is     1372.7 secs

     total energy              =    -384.04152234 Ry
     estimated scf accuracy    <       0.00000054 Ry

     iteration #  6     ecut=    60.00 Ry     beta= 0.30
     Davidson diagonalization with overlap

---- Real-time Memory Report at c_bands before calling an iterative solver
          4547 MiB given to the printing process from OS
             0 MiB allocation reported by mallinfo(arena+hblkhd)
         16948 MiB available memory on the node where the printing process lives
------------------
     ethr =  3.77E-10,  avg # of iterations =  3.0

     negative rho (up, down):  1.102E-02 0.000E+00

     total cpu time spent up to now is     1391.4 secs

     total energy              =    -384.04152224 Ry
     estimated scf accuracy    <       0.00000023 Ry

     iteration #  7     ecut=    60.00 Ry     beta= 0.30
     Davidson diagonalization with overlap

---- Real-time Memory Report at c_bands before calling an iterative solver
          4547 MiB given to the printing process from OS
             0 MiB allocation reported by mallinfo(arena+hblkhd)
         16866 MiB available memory on the node where the printing process lives
------------------
     ethr =  1.60E-10,  avg # of iterations =  6.0

     negative rho (up, down):  1.102E-02 0.000E+00

     total cpu time spent up to now is     1415.4 secs

     total energy              =    -384.04152227 Ry
     estimated scf accuracy    <       0.00000038 Ry

     iteration #  8     ecut=    60.00 Ry     beta= 0.30
     Davidson diagonalization with overlap

---- Real-time Memory Report at c_bands before calling an iterative solver
          4547 MiB given to the printing process from OS
             0 MiB allocation reported by mallinfo(arena+hblkhd)
         16775 MiB available memory on the node where the printing process lives
------------------
     ethr =  1.60E-10,  avg # of iterations =  5.0

     negative rho (up, down):  1.102E-02 0.000E+00

     total cpu time spent up to now is     1437.4 secs

     total energy              =    -384.04152238 Ry
     estimated scf accuracy    <       0.00000002 Ry

     iteration #  9     ecut=    60.00 Ry     beta= 0.30
     Davidson diagonalization with overlap

---- Real-time Memory Report at c_bands before calling an iterative solver
          4547 MiB given to the printing process from OS
             0 MiB allocation reported by mallinfo(arena+hblkhd)
         16680 MiB available memory on the node where the printing process lives
------------------
     ethr =  1.31E-11,  avg # of iterations =  5.0

     negative rho (up, down):  1.102E-02 0.000E+00

     total cpu time spent up to now is     1459.2 secs

     total energy              =    -384.04152237 Ry
     estimated scf accuracy    <       0.00000005 Ry

     iteration # 10     ecut=    60.00 Ry     beta= 0.30
     Davidson diagonalization with overlap

---- Real-time Memory Report at c_bands before calling an iterative solver
          4547 MiB given to the printing process from OS
             0 MiB allocation reported by mallinfo(arena+hblkhd)
         16596 MiB available memory on the node where the printing process lives
------------------
     ethr =  1.31E-11,  avg # of iterations =  5.0

     negative rho (up, down):  1.102E-02 0.000E+00

     total cpu time spent up to now is     1480.9 secs

     End of self-consistent calculation

          k = 0.0000 0.0000 0.0000 (362139 PWs)   bands (ev):

   -22.5137 -21.8908 -21.6170 -20.9818 -20.8704 -20.2246 -19.8966 -19.7627
   -19.3363 -18.7057 -18.5273 -18.4846 -18.0540 -17.7507 -17.4573 -17.0966
   -15.7191 -15.6692 -15.6678 -15.5029 -15.4486 -15.0439 -14.0664 -13.9339
   -13.7696 -13.3038 -12.9943 -12.9661 -12.9291 -12.0640 -11.8648 -11.6057
   -11.5825 -11.5653 -11.2930 -10.9022 -10.5844 -10.5682 -10.4098 -10.3234
   -10.2900 -10.1207  -9.9770  -9.9359  -9.8615  -9.7395  -9.5715  -9.5085
    -9.3157  -9.2431  -8.9930  -8.8475  -8.7266  -8.6394  -8.5988  -8.3997
    -8.2161  -8.0966  -7.9321  -7.6413  -7.5381  -7.3180  -7.2219  -7.1240
    -6.4847  -6.3773  -6.2658  -5.9119  -5.6069  -5.1672  -4.5908

     occupation numbers 
     1.0000   1.0000   1.0000   1.0000   1.0000   1.0000   1.0000   1.0000
     1.0000   1.0000   1.0000   1.0000   1.0000   1.0000   1.0000   1.0000
     1.0000   1.0000   1.0000   1.0000   1.0000   1.0000   1.0000   1.0000
     1.0000   1.0000   1.0000   1.0000   1.0000   1.0000   1.0000   1.0000
     1.0000   1.0000   1.0000   1.0000   1.0000   1.0000   1.0000   1.0000
     1.0000   1.0000   1.0000   1.0000   1.0000   1.0000   1.0000   1.0000
     1.0000   1.0000   1.0000   1.0000   1.0000   1.0000   1.0000   1.0000
     1.0000   1.0000   1.0000   1.0000   1.0000   1.0000   1.0000   1.0000
     1.0000   1.0000   1.0000   1.0000   1.0000   1.0000   1.0000

     highest occupied level (ev):    -4.5908

!    total energy              =    -384.04152238 Ry
     estimated scf accuracy    <          4.6E-10 Ry

     The total energy is the sum of the following terms:
     one-electron contribution =   -3469.46219415 Ry
     hartree contribution      =    1750.03438930 Ry
     xc contribution           =    -125.72154348 Ry
     ewald contribution        =    1461.10782595 Ry

     convergence has been achieved in  10 iterations

     negative rho (up, down):  1.102E-02 0.000E+00

     Forces acting on atoms (cartesian axes, Ry/au):

     atom    1 type  1   force =     0.00151406    0.00078874    0.00000000
     atom    2 type  1   force =     0.00273627   -0.00015013    0.00000000
     atom    3 type  1   force =     0.00027950    0.00165612   -0.00000000
     atom    4 type  1   force =    -0.00104614    0.00249763    0.00000000
     atom    5 type  1   force =     0.00251179    0.00192278    0.00000000
     atom    6 type  1   force =    -0.00141578    0.00125566   -0.00000000
     atom    7 type  1   force =     0.00273637    0.00014999   -0.00000000
     atom    8 type  1   force =     0.00251184   -0.00192301   -0.00000000
     atom    9 type  1   force =    -0.00000023   -0.00120770    0.00000000
     atom   10 type  1   force =     0.00104663    0.00249770    0.00000000
     atom   11 type  1   force =    -0.00050083   -0.00118386    0.00000000
     atom   12 type  1   force =     0.00000009    0.00283565   -0.00000000
     atom   13 type  1   force =    -0.00141578   -0.00125579   -0.00000000
     atom   14 type  1   force =    -0.00050050    0.00118374   -0.00000000
     atom   15 type  1   force =     0.00151441   -0.00078919    0.00000000
     atom   16 type  1   force =     0.00027947   -0.00165675    0.00000000
     atom   17 type  1   force =    -0.00027947    0.00165675    0.00000000
     atom   18 type  1   force =    -0.00151441    0.00078919    0.00000000
     atom   19 type  1   force =     0.00050050   -0.00118374   -0.00000000
     atom   20 type  1   force =     0.00141578    0.00125579   -0.00000000
     atom   21 type  1   force =    -0.00000009   -0.00283565   -0.00000000
     atom   22 type  1   force =     0.00050083    0.00118386    0.00000000
     atom   23 type  1   force =    -0.00104663   -0.00249770    0.00000000
     atom   24 type  1   force =     0.00000023    0.00120770    0.00000000
     atom   25 type  1   force =    -0.00251184    0.00192301   -0.00000000
     atom   26 type  1   force =    -0.00273637   -0.00014999   -0.00000000
     atom   27 type  1   force =     0.00141578   -0.00125566   -0.00000000
     atom   28 type  1   force =    -0.00251179   -0.00192278    0.00000000
     atom   29 type  1   force =     0.00104614   -0.00249763    0.00000000
     atom   30 type  1   force =    -0.00027950   -0.00165612   -0.00000000
     atom   31 type  1   force =    -0.00273627    0.00015013    0.00000000
     atom   32 type  1   force =    -0.00151406   -0.00078874    0.00000000
     atom   33 type  2   force =     0.00079189   -0.00276346   -0.00000000
     atom   34 type  2   force =     0.00005794    0.00240828   -0.00000000
     atom   35 type  2   force =    -0.00363455   -0.00112387    0.00000000
     atom   36 type  2   force =     0.00005812   -0.00240835    0.00000000
     atom   37 type  2   force =     0.00079185    0.00276353   -0.00000000
     atom   38 type  2   force =    -0.00363469    0.00112401   -0.00000000
     atom   39 type  2   force =     0.00363469   -0.00112401   -0.00000000
     atom   40 type  2   force =    -0.00079185   -0.00276353   -0.00000000
     atom   41 type  2   force =    -0.00005812    0.00240835    0.00000000
     atom   42 type  2   force =     0.00363455    0.00112387    0.00000000
     atom   43 type  2   force =    -0.00005794   -0.00240828   -0.00000000
     atom   44 type  2   force =    -0.00079189    0.00276346   -0.00000000
     atom   45 type  2   force =     0.00000009    0.00035905   -0.00000000
     atom   46 type  2   force =    -0.00000009   -0.00035905   -0.00000000
     The non-local contrib.  to forces
     atom    1 type  1   force =    -0.00097907    0.03749033    0.00000000
     atom    2 type  1   force =     0.02516275   -0.00762106    0.00000000
     atom    3 type  1   force =     0.03573325    0.02015376   -0.00000000
     atom    4 type  1   force =    -0.01294080    0.02975760    0.00000000
     atom    5 type  1   force =     0.02464763    0.00406632    0.00000000
     atom    6 type  1   force =     0.01037625    0.00633582   -0.00000000
     atom    7 type  1   force =     0.02516340    0.00761932   -0.00000000
     atom    8 type  1   force =     0.02464757   -0.00406829    0.00000000
     atom    9 type  1   force =    -0.00000071    0.02099075    0.00000000
     atom   10 type  1   force =     0.01293918    0.02975850    0.00000000
     atom   11 type  1   force =    -0.00005596    0.00404882    0.00000000
     atom   12 type  1   force =    -0.00000027    0.01328369   -0.00000000
     atom   13 type  1   force =     0.01037690   -0.00633669   -0.00000000
     atom   14 type  1   force =    -0.00005571   -0.00404945    0.00000000
     atom   15 type  1   force =    -0.00097651   -0.03749340    0.00000000
     atom   16 type  1   force =     0.03573444   -0.02015795    0.00000000
     atom   17 type  1   force =    -0.03573444    0.02015795    0.00000000
     atom   18 type  1   force =     0.00097651    0.03749340    0.00000000
     atom   19 type  1   force =     0.00005571    0.00404945    0.00000000
     atom   20 type  1   force =    -0.01037690    0.00633669   -0.00000000
     atom   21 type  1   force =     0.00000027   -0.01328369   -0.00000000
     atom   22 type  1   force =     0.00005596   -0.00404882    0.00000000
     atom   23 type  1   force =    -0.01293918   -0.02975850    0.00000000
     atom   24 type  1   force =     0.00000071   -0.02099075    0.00000000
     atom   25 type  1   force =    -0.02464757    0.00406829    0.00000000
     atom   26 type  1   force =    -0.02516340   -0.00761932   -0.00000000
     atom   27 type  1   force =    -0.01037625   -0.00633582   -0.00000000
     atom   28 type  1   force =    -0.02464763   -0.00406632    0.00000000
     atom   29 type  1   force =     0.01294080   -0.02975760    0.00000000
     atom   30 type  1   force =    -0.03573325   -0.02015376   -0.00000000
     atom   31 type  1   force =    -0.02516275    0.00762106    0.00000000
     atom   32 type  1   force =     0.00097907   -0.03749033    0.00000000
     atom   33 type  2   force =     0.06747931    0.03771055   -0.00000000
     atom   34 type  2   force =     0.06634707    0.03907877   -0.00000000
     atom   35 type  2   force =    -0.00127588    0.07737928    0.00000000
     atom   36 type  2   force =     0.06634718   -0.03907888    0.00000000
     atom   37 type  2   force =     0.06747948   -0.03771078   -0.00000000
     atom   38 type  2   force =    -0.00127556   -0.07737947   -0.00000000
     atom   39 type  2   force =     0.00127556    0.07737947   -0.00000000
     atom   40 type  2   force =    -0.06747948    0.03771078   -0.00000000
     atom   41 type  2   force =    -0.06634718    0.03907888    0.00000000
     atom   42 type  2   force =     0.00127588   -0.07737928    0.00000000
     atom   43 type  2   force =    -0.06634707   -0.03907877   -0.00000000
     atom   44 type  2   force =    -0.06747931   -0.03771055   -0.00000000
     atom   45 type  2   force =    -0.00000014    0.07665689   -0.00000000
     atom   46 type  2   force =     0.00000014   -0.07665689   -0.00000000
     The ionic contribution  to forces
     atom    1 type  1   force =    -8.73248143   -7.83582079   -0.00000001
     atom    2 type  1   force =   -11.25528051   -2.96578893   -0.00000001
     atom    3 type  1   force =    -3.78888175  -11.02511199    0.00000000
     atom    4 type  1   force =    -1.94775478   -7.71056661   -0.00000000
     atom    5 type  1   force =    -7.23322661   -3.84780929   -0.00000001
     atom    6 type  1   force =    -3.99767758   -1.63698768    0.00000000
     atom    7 type  1   force =   -11.25589729    2.97611413    0.00000000
     atom    8 type  1   force =    -7.23558941    3.85709312    0.00000000
     atom    9 type  1   force =     0.00555337  -11.46011528   -0.00000000
     atom   10 type  1   force =     1.95587942   -7.71487457   -0.00000000
     atom   11 type  1   force =    -1.91425551   -3.34821613    0.00000000
     atom   12 type  1   force =     0.00097071   -1.51720884    0.00000001
     atom   13 type  1   force =    -3.99925558    1.64333518    0.00000001
     atom   14 type  1   force =    -1.91800758    3.35173052    0.00000001
     atom   15 type  1   force =    -8.73766256    7.84718688   -0.00000000
     atom   16 type  1   force =    -3.79795573   11.03462397   -0.00000000
     atom   17 type  1   force =     3.79795553  -11.03462386   -0.00000000
     atom   18 type  1   force =     8.73766249   -7.84718679   -0.00000000
     atom   19 type  1   force =     1.91800750   -3.35173078    0.00000001
     atom   20 type  1   force =     3.99925555   -1.64333529    0.00000001
     atom   21 type  1   force =    -0.00097071    1.51720863    0.00000001
     atom   22 type  1   force =     1.91425559    3.34821587    0.00000000
     atom   23 type  1   force =    -1.95587993    7.71487425   -0.00000000
     atom   24 type  1   force =    -0.00555337   11.46010970   -0.00000000
     atom   25 type  1   force =     7.23558936   -3.85709322    0.00000000
     atom   26 type  1   force =    11.25589727   -2.97611416    0.00000000
     atom   27 type  1   force =     3.99767761    1.63698757    0.00000000
     atom   28 type  1   force =     7.23322666    3.84780919   -0.00000001
     atom   29 type  1   force =     1.94775528    7.71056630   -0.00000000
     atom   30 type  1   force =     3.78888195   11.02511211    0.00000000
     atom   31 type  1   force =    11.25528052    2.96578890   -0.00000001
     atom   32 type  1   force =     8.73248149    7.83582089   -0.00000001
     atom   33 type  2   force =    -3.49242192   -2.62610706    0.00000000
     atom   34 type  2   force =    -4.01506594   -1.60596372    0.00000000
     atom   35 type  2   force =    -0.80409792   -4.30618713   -0.00000000
     atom   36 type  2   force =    -4.01514769    1.60879650   -0.00000000
     atom   37 type  2   force =    -3.49348079    2.62974591    0.00000000
     atom   38 type  2   force =    -0.80741137    4.30920384    0.00000000
     atom   39 type  2   force =     0.80741137   -4.30920377    0.00000000
     atom   40 type  2   force =     3.49348078   -2.62974590    0.00000000
     atom   41 type  2   force =     4.01514768   -1.60879650   -0.00000000
     atom   42 type  2   force =     0.80409792    4.30618720   -0.00000000
     atom   43 type  2   force =     4.01506595    1.60596371    0.00000000
     atom   44 type  2   force =     3.49242193    2.62610707    0.00000000
     atom   45 type  2   force =     0.00201651   -4.51413174   -0.00000000
     atom   46 type  2   force =    -0.00201651    4.51413857   -0.00000000
     The local contribution  to forces
     atom    1 type  1   force =     8.73350315    7.79945391    0.00000001
     atom    2 type  1   force =    11.23215623    2.97223156    0.00000001
     atom    3 type  1   force =     3.75449494   11.00553097   -0.00000000
     atom    4 type  1   force =     1.95915467    7.68358411    0.00000000
     atom    5 type  1   force =     7.21123103    3.84546361    0.00000001
     atom    6 type  1   force =     3.98597080    1.63197645   -0.00000000
     atom    7 type  1   force =    11.23277240   -2.98255523   -0.00000000
     atom    8 type  1   force =     7.21359406   -3.85474574   -0.00000000
     atom    9 type  1   force =    -0.00555288   11.43691503    0.00000000
     atom   10 type  1   force =    -1.96727714    7.68789136    0.00000000
     atom   11 type  1   force =     1.91372462    3.34285693   -0.00000000
     atom   12 type  1   force =    -0.00097027    1.50707461   -0.00000001
     atom   13 type  1   force =     3.98754811   -1.63832323   -0.00000001
     atom   14 type  1   force =     1.91747685   -3.34637074   -0.00000001
     atom   15 type  1   force =     8.73868213   -7.81081737    0.00000000
     atom   16 type  1   force =     3.76356771  -11.01503949    0.00000000
     atom   17 type  1   force =    -3.76356751   11.01503934    0.00000000
     atom   18 type  1   force =    -8.73868207    7.81081728    0.00000000
     atom   19 type  1   force =    -1.91747677    3.34637106   -0.00000001
     atom   20 type  1   force =    -3.98754806    1.63832335   -0.00000001
     atom   21 type  1   force =     0.00097027   -1.50707439   -0.00000001
     atom   22 type  1   force =    -1.91372470   -3.34285661   -0.00000000
     atom   23 type  1   force =     1.96727774   -7.68789104    0.00000000
     atom   24 type  1   force =     0.00555288  -11.43690980    0.00000000
     atom   25 type  1   force =    -7.21359401    3.85474583   -0.00000000
     atom   26 type  1   force =   -11.23277238    2.98255525   -0.00000000
     atom   27 type  1   force =    -3.98597085   -1.63197633   -0.00000000
     atom   28 type  1   force =    -7.21123107   -3.84546352    0.00000001
     atom   29 type  1   force =    -1.95915526   -7.68358379    0.00000000
     atom   30 type  1   force =    -3.75449515  -11.00553113   -0.00000000
     atom   31 type  1   force =   -11.23215624   -2.97223154    0.00000001
     atom   32 type  1   force =    -8.73350321   -7.79945401    0.00000001
     atom   33 type  2   force =     3.42573359    2.58563195   -0.00000000
     atom   34 type  2   force =     3.94877556    1.56929222   -0.00000000
     atom   35 type  2   force =     0.80174057    4.22768414    0.00000000
     atom   36 type  2   force =     3.94885737   -1.57212496    0.00000000
     atom   37 type  2   force =     3.42679224   -2.58927049   -0.00000000
     atom   38 type  2   force =     0.80505355   -4.23070052   -0.00000000
     atom   39 type  2   force =    -0.80505356    4.23070046   -0.00000000
     atom   40 type  2   force =    -3.42679223    2.58927048   -0.00000000
     atom   41 type  2   force =    -3.94885736    1.57212496    0.00000000
     atom   42 type  2   force =    -0.80174057   -4.22768421    0.00000000
     atom   43 type  2   force =    -3.94877556   -1.56929222   -0.00000000
     atom   44 type  2   force =    -3.42573360   -2.58563196   -0.00000000
     atom   45 type  2   force =    -0.00201628    4.43783607    0.00000000
     atom   46 type  2   force =     0.00201628   -4.43784049    0.00000000
     The core correction contribution to forces
     atom    1 type  1   force =     0.00147629   -0.00034057    0.00000000
     atom    2 type  1   force =     0.00069528    0.00102620    0.00000000
     atom    3 type  1   force =    -0.00105879    0.00108052   -0.00000000
     atom    4 type  1   force =     0.00050060   -0.00027878    0.00000000
     atom    5 type  1   force =    -0.00013443    0.00020330    0.00000000
     atom    6 type  1   force =    -0.00007538   -0.00006570   -0.00000000
     atom    7 type  1   force =     0.00069533   -0.00102615   -0.00000000
     atom    8 type  1   force =    -0.00013455   -0.00020328   -0.00000000
     atom    9 type  1   force =     0.00000000    0.00100361    0.00000000
     atom   10 type  1   force =    -0.00050065   -0.00027887    0.00000000
     atom   11 type  1   force =     0.00009301    0.00012687   -0.00000000
     atom   12 type  1   force =    -0.00000007   -0.00031027   -0.00000000
     atom   13 type  1   force =    -0.00007530    0.00006575   -0.00000000
     atom   14 type  1   force =     0.00009290   -0.00012686   -0.00000000
     atom   15 type  1   force =     0.00147623    0.00034057    0.00000000
     atom   16 type  1   force =    -0.00105879   -0.00108044    0.00000000
     atom   17 type  1   force =     0.00105879    0.00108044    0.00000000
     atom   18 type  1   force =    -0.00147623   -0.00034057    0.00000000
     atom   19 type  1   force =    -0.00009290    0.00012686   -0.00000000
     atom   20 type  1   force =     0.00007530   -0.00006575   -0.00000000
     atom   21 type  1   force =     0.00000007    0.00031027   -0.00000000
     atom   22 type  1   force =    -0.00009301   -0.00012687   -0.00000000
     atom   23 type  1   force =     0.00050065    0.00027887    0.00000000
     atom   24 type  1   force =    -0.00000000   -0.00100358    0.00000000
     atom   25 type  1   force =     0.00013455    0.00020328   -0.00000000
     atom   26 type  1   force =    -0.00069533    0.00102615   -0.00000000
     atom   27 type  1   force =     0.00007538    0.00006570   -0.00000000
     atom   28 type  1   force =     0.00013443   -0.00020330    0.00000000
     atom   29 type  1   force =    -0.00050060    0.00027878    0.00000000
     atom   30 type  1   force =     0.00105879   -0.00108052   -0.00000000
     atom   31 type  1   force =    -0.00069528   -0.00102620    0.00000000
     atom   32 type  1   force =    -0.00147629    0.00034057    0.00000000
     atom   33 type  2   force =     0.00000000    0.00000000    0.00000000
     atom   34 type  2   force =     0.00000000    0.00000000    0.00000000
     atom   35 type  2   force =     0.00000000    0.00000000    0.00000000
     atom   36 type  2   force =     0.00000000    0.00000000    0.00000000
     atom   37 type  2   force =     0.00000000    0.00000000    0.00000000
     atom   38 type  2   force =     0.00000000    0.00000000    0.00000000
     atom   39 type  2   force =     0.00000000    0.00000000    0.00000000
     atom   40 type  2   force =     0.00000000    0.00000000    0.00000000
     atom   41 type  2   force =     0.00000000    0.00000000    0.00000000
     atom   42 type  2   force =     0.00000000    0.00000000    0.00000000
     atom   43 type  2   force =     0.00000000    0.00000000    0.00000000
     atom   44 type  2   force =     0.00000000    0.00000000    0.00000000
     atom   45 type  2   force =     0.00000000    0.00000000    0.00000000
     atom   46 type  2   force =     0.00000000    0.00000000    0.00000000
     The Hubbard contrib.    to forces
     atom    1 type  1   force =     0.00000000    0.00000000    0.00000000
     atom    2 type  1   force =     0.00000000    0.00000000    0.00000000
     atom    3 type  1   force =     0.00000000    0.00000000    0.00000000
     atom    4 type  1   force =     0.00000000    0.00000000    0.00000000
     atom    5 type  1   force =     0.00000000    0.00000000    0.00000000
     atom    6 type  1   force =     0.00000000    0.00000000    0.00000000
     atom    7 type  1   force =     0.00000000    0.00000000    0.00000000
     atom    8 type  1   force =     0.00000000    0.00000000    0.00000000
     atom    9 type  1   force =     0.00000000    0.00000000    0.00000000
     atom   10 type  1   force =     0.00000000    0.00000000    0.00000000
     atom   11 type  1   force =     0.00000000    0.00000000    0.00000000
     atom   12 type  1   force =     0.00000000    0.00000000    0.00000000
     atom   13 type  1   force =     0.00000000    0.00000000    0.00000000
     atom   14 type  1   force =     0.00000000    0.00000000    0.00000000
     atom   15 type  1   force =     0.00000000    0.00000000    0.00000000
     atom   16 type  1   force =     0.00000000    0.00000000    0.00000000
     atom   17 type  1   force =     0.00000000    0.00000000    0.00000000
     atom   18 type  1   force =     0.00000000    0.00000000    0.00000000
     atom   19 type  1   force =     0.00000000    0.00000000    0.00000000
     atom   20 type  1   force =     0.00000000    0.00000000    0.00000000
     atom   21 type  1   force =     0.00000000    0.00000000    0.00000000
     atom   22 type  1   force =     0.00000000    0.00000000    0.00000000
     atom   23 type  1   force =     0.00000000    0.00000000    0.00000000
     atom   24 type  1   force =     0.00000000    0.00000000    0.00000000
     atom   25 type  1   force =     0.00000000    0.00000000    0.00000000
     atom   26 type  1   force =     0.00000000    0.00000000    0.00000000
     atom   27 type  1   force =     0.00000000    0.00000000    0.00000000
     atom   28 type  1   force =     0.00000000    0.00000000    0.00000000
     atom   29 type  1   force =     0.00000000    0.00000000    0.00000000
     atom   30 type  1   force =     0.00000000    0.00000000    0.00000000
     atom   31 type  1   force =     0.00000000    0.00000000    0.00000000
     atom   32 type  1   force =     0.00000000    0.00000000    0.00000000
     atom   33 type  2   force =     0.00000000    0.00000000    0.00000000
     atom   34 type  2   force =     0.00000000    0.00000000    0.00000000
     atom   35 type  2   force =     0.00000000    0.00000000    0.00000000
     atom   36 type  2   force =     0.00000000    0.00000000    0.00000000
     atom   37 type  2   force =     0.00000000    0.00000000    0.00000000
     atom   38 type  2   force =     0.00000000    0.00000000    0.00000000
     atom   39 type  2   force =     0.00000000    0.00000000    0.00000000
     atom   40 type  2   force =     0.00000000    0.00000000    0.00000000
     atom   41 type  2   force =     0.00000000    0.00000000    0.00000000
     atom   42 type  2   force =     0.00000000    0.00000000    0.00000000
     atom   43 type  2   force =     0.00000000    0.00000000    0.00000000
     atom   44 type  2   force =     0.00000000    0.00000000    0.00000000
     atom   45 type  2   force =     0.00000000    0.00000000    0.00000000
     atom   46 type  2   force =     0.00000000    0.00000000    0.00000000
     The SCF correction term to forces
     atom    1 type  1   force =    -0.00000489    0.00000586   -0.00000000
     atom    2 type  1   force =     0.00000251    0.00000209    0.00000000
     atom    3 type  1   force =    -0.00000817    0.00000284    0.00000000
     atom    4 type  1   force =    -0.00000588    0.00000131    0.00000000
     atom    5 type  1   force =    -0.00000583   -0.00000116    0.00000000
     atom    6 type  1   force =    -0.00000988   -0.00000323   -0.00000000
     atom    7 type  1   force =     0.00000252   -0.00000209    0.00000000
     atom    8 type  1   force =    -0.00000583    0.00000117   -0.00000000
     atom    9 type  1   force =    -0.00000000   -0.00000197   -0.00000000
     atom   10 type  1   force =     0.00000587    0.00000129   -0.00000000
     atom   11 type  1   force =    -0.00000698   -0.00000032   -0.00000000
     atom   12 type  1   force =    -0.00000001   -0.00000355   -0.00000000
     atom   13 type  1   force =    -0.00000990    0.00000321   -0.00000000
     atom   14 type  1   force =    -0.00000696    0.00000030    0.00000000
     atom   15 type  1   force =    -0.00000489   -0.00000587    0.00000000
     atom   16 type  1   force =    -0.00000817   -0.00000286    0.00000000
     atom   17 type  1   force =     0.00000817    0.00000286   -0.00000000
     atom   18 type  1   force =     0.00000489    0.00000587    0.00000000
     atom   19 type  1   force =     0.00000696   -0.00000030   -0.00000000
     atom   20 type  1   force =     0.00000990   -0.00000321    0.00000000
     atom   21 type  1   force =     0.00000001    0.00000355    0.00000000
     atom   22 type  1   force =     0.00000698    0.00000032    0.00000000
     atom   23 type  1   force =    -0.00000587   -0.00000129   -0.00000000
     atom   24 type  1   force =     0.00000000    0.00000197    0.00000000
     atom   25 type  1   force =     0.00000583   -0.00000117    0.00000000
     atom   26 type  1   force =    -0.00000252    0.00000209   -0.00000000
     atom   27 type  1   force =     0.00000988    0.00000323    0.00000000
     atom   28 type  1   force =     0.00000583    0.00000116   -0.00000000
     atom   29 type  1   force =     0.00000588   -0.00000131    0.00000000
     atom   30 type  1   force =     0.00000817   -0.00000284    0.00000000
     atom   31 type  1   force =    -0.00000251   -0.00000209    0.00000000
     atom   32 type  1   force =     0.00000489   -0.00000586   -0.00000000
     atom   33 type  2   force =     0.00000091    0.00000110    0.00000000
     atom   34 type  2   force =     0.00000125    0.00000100    0.00000000
     atom   35 type  2   force =    -0.00000132   -0.00000016   -0.00000000
     atom   36 type  2   force =     0.00000126   -0.00000100    0.00000000
     atom   37 type  2   force =     0.00000092   -0.00000110    0.00000000
     atom   38 type  2   force =    -0.00000132    0.00000016   -0.00000000
     atom   39 type  2   force =     0.00000132   -0.00000016   -0.00000000
     atom   40 type  2   force =    -0.00000092    0.00000110    0.00000000
     atom   41 type  2   force =    -0.00000126    0.00000100   -0.00000000
     atom   42 type  2   force =     0.00000132    0.00000016   -0.00000000
     atom   43 type  2   force =    -0.00000125   -0.00000100   -0.00000000
     atom   44 type  2   force =    -0.00000091   -0.00000110   -0.00000000
     atom   45 type  2   force =    -0.00000000   -0.00000097   -0.00000000
     atom   46 type  2   force =     0.00000000    0.00000097    0.00000000

     Total force =     0.016634     Total SCF correction =     0.000039
     Energy error            =      5.1E-04 Ry
     Gradient error          =      3.6E-03 Ry/Bohr

     number of scf cycles    =   5
     number of bfgs steps    =   3

     energy             old  =    -384.0410084593 Ry
     energy             new  =    -384.0415223817 Ry

     CASE: energy            _new < energy            _old

     new trust radius        =       0.0049730479 bohr
     new conv_thr            =       0.0000000004 Ry


ATOMIC_POSITIONS (angstrom)
C                2.3069139318        8.2074428586        4.9999999992
C                1.0621623372       10.3693652441        4.9999999991
C                3.4920567178        7.5203345567        4.9999999998
C                4.7492023448        8.2029446583        4.9999999999
C                2.2739898975        9.6365640175        4.9999999990
C                3.5096572662       10.3476165764        5.0000000001
C                1.0621625303       11.7526060583        5.0000000000
C                2.2739902834       12.4854070695        5.0000000004
C                5.9760632063        7.5218806548        4.9999999998
C                7.2029241958        8.2029449310        5.0000000001
C                4.7446706952        9.6354811332        5.0000000004
C                5.9760631480       10.3450966159        5.0000000010
C                3.5096574617       11.7743545283        5.0000000009
C                4.7446708092       12.4864902156        5.0000000008
C                2.3069140460       13.9145282576        5.0000000000
C                3.4920565404       14.6016366862        4.9999999999
C                8.4600697396        7.5203349438        4.9999999999
C                9.6452122340        8.2074433724        5.0000000000
C                7.2074554708        9.6354814244        5.0000000008
C                8.4424688183       10.3476171117        5.0000000009
C                5.9760631320       11.7768750241        5.0000000010
C                7.2074555848       12.4864905068        5.0000000004
C                4.7492020842       13.9190266990        5.0000000001
C                5.9760630737       14.6000909752        4.9999999998
C                9.6781359966        9.6365645705        5.0000000004
C               10.8899637497       10.3693655817        5.0000000000
C                8.4424690138       11.7743550636        5.0000000001
C                9.6781363825       12.4854076225        4.9999999990
C                7.2029239352       13.9190269717        4.9999999999
C                8.4600695622       14.6016370733        4.9999999998
C               10.8899639428       11.7526063959        4.9999999991
C                9.6452123482       13.9145287714        4.9999999992
H                1.3533626567        7.6756956458        4.9999999996
H                0.1210767013        9.8145482527        5.0000000000
H                3.5096659779        6.4288003065        4.9999999999
H                0.1210769379       12.3074232696        5.0000000000
H                1.3533629673       14.4462760937        5.0000000000
H                3.5096656429       15.6931711085        5.0000000002
H                8.4424606371        6.4288005215        5.0000000002
H               10.5987633127        7.6756955363        5.0000000000
H               11.8310493421        9.8145483704        5.0000000000
H                8.4424603021       15.6931713235        4.9999999999
H               11.8310495787       12.3074233873        5.0000000000
H               10.5987636233       14.4462759842        4.9999999996
H                5.9760632980        6.4301782131        4.9999999998
H                5.9760629820       15.6917917869        4.9999999998



     Writing config-only to output data dir /home/nihal/Desktop/OtptfGG/gqd_1.save/ :
     XML data file
     NEW-OLD atomic charge density approx. for the potential

     negative rho (up, down):  1.102E-02 0.000E+00

     total cpu time spent up to now is     1497.0 secs

     Self-consistent Calculation

     iteration #  1     ecut=    60.00 Ry     beta= 0.30
     Davidson diagonalization with overlap

---- Real-time Memory Report at c_bands before calling an iterative solver
          4547 MiB given to the printing process from OS
             0 MiB allocation reported by mallinfo(arena+hblkhd)
         18572 MiB available memory on the node where the printing process lives
------------------
     ethr =  1.00E-06,  avg # of iterations =  3.0

     Threshold (ethr) on eigenvalues was too large:
     Diagonalizing with lowered threshold

     Davidson diagonalization with overlap

---- Real-time Memory Report at c_bands before calling an iterative solver
          4547 MiB given to the printing process from OS
             0 MiB allocation reported by mallinfo(arena+hblkhd)
         18345 MiB available memory on the node where the printing process lives
------------------
     ethr =  2.19E-08,  avg # of iterations =  5.0

     negative rho (up, down):  1.102E-02 0.000E+00

     total cpu time spent up to now is     1536.7 secs

     total energy              =    -384.04171303 Ry
     estimated scf accuracy    <       0.00005626 Ry

     iteration #  2     ecut=    60.00 Ry     beta= 0.30
     Davidson diagonalization with overlap

---- Real-time Memory Report at c_bands before calling an iterative solver
          4547 MiB given to the printing process from OS
             0 MiB allocation reported by mallinfo(arena+hblkhd)
         17292 MiB available memory on the node where the printing process lives
------------------
     ethr =  3.96E-08,  avg # of iterations =  2.0

     negative rho (up, down):  1.102E-02 0.000E+00

     total cpu time spent up to now is     1555.7 secs

     total energy              =    -384.04171401 Ry
     estimated scf accuracy    <       0.00001260 Ry

     iteration #  3     ecut=    60.00 Ry     beta= 0.30
     Davidson diagonalization with overlap

---- Real-time Memory Report at c_bands before calling an iterative solver
          4547 MiB given to the printing process from OS
             0 MiB allocation reported by mallinfo(arena+hblkhd)
         17204 MiB available memory on the node where the printing process lives
------------------
     ethr =  8.87E-09,  avg # of iterations =  4.0

     negative rho (up, down):  1.102E-02 0.000E+00

     total cpu time spent up to now is     1576.7 secs

     total energy              =    -384.04171504 Ry
     estimated scf accuracy    <       0.00000327 Ry

     iteration #  4     ecut=    60.00 Ry     beta= 0.30
     Davidson diagonalization with overlap

---- Real-time Memory Report at c_bands before calling an iterative solver
          4547 MiB given to the printing process from OS
             0 MiB allocation reported by mallinfo(arena+hblkhd)
         17126 MiB available memory on the node where the printing process lives
------------------
     ethr =  2.30E-09,  avg # of iterations =  5.0

     negative rho (up, down):  1.102E-02 0.000E+00

     total cpu time spent up to now is     1598.7 secs

     total energy              =    -384.04171525 Ry
     estimated scf accuracy    <       0.00000293 Ry

     iteration #  5     ecut=    60.00 Ry     beta= 0.30
     Davidson diagonalization with overlap

---- Real-time Memory Report at c_bands before calling an iterative solver
          4547 MiB given to the printing process from OS
             0 MiB allocation reported by mallinfo(arena+hblkhd)
         17029 MiB available memory on the node where the printing process lives
------------------
     ethr =  2.06E-09,  avg # of iterations =  5.0

     negative rho (up, down):  1.102E-02 0.000E+00

     total cpu time spent up to now is     1619.3 secs

     total energy              =    -384.04171577 Ry
     estimated scf accuracy    <       0.00000014 Ry

     iteration #  6     ecut=    60.00 Ry     beta= 0.30
     Davidson diagonalization with overlap

---- Real-time Memory Report at c_bands before calling an iterative solver
          4547 MiB given to the printing process from OS
             0 MiB allocation reported by mallinfo(arena+hblkhd)
         16950 MiB available memory on the node where the printing process lives
------------------
     ethr =  9.51E-11,  avg # of iterations =  7.0

     negative rho (up, down):  1.102E-02 0.000E+00

     total cpu time spent up to now is     1642.4 secs

     total energy              =    -384.04171575 Ry
     estimated scf accuracy    <       0.00000017 Ry

     iteration #  7     ecut=    60.00 Ry     beta= 0.30
     Davidson diagonalization with overlap

---- Real-time Memory Report at c_bands before calling an iterative solver
          4547 MiB given to the printing process from OS
             0 MiB allocation reported by mallinfo(arena+hblkhd)
         16856 MiB available memory on the node where the printing process lives
------------------
     ethr =  9.51E-11,  avg # of iterations =  5.0

     negative rho (up, down):  1.102E-02 0.000E+00

     total cpu time spent up to now is     1664.4 secs

     total energy              =    -384.04171580 Ry
     estimated scf accuracy    <       0.00000006 Ry

     iteration #  8     ecut=    60.00 Ry     beta= 0.30
     Davidson diagonalization with overlap

---- Real-time Memory Report at c_bands before calling an iterative solver
          4547 MiB given to the printing process from OS
             0 MiB allocation reported by mallinfo(arena+hblkhd)
         16762 MiB available memory on the node where the printing process lives
------------------
     ethr =  4.26E-11,  avg # of iterations =  5.0

     negative rho (up, down):  1.102E-02 0.000E+00

     total cpu time spent up to now is     1684.5 secs

     total energy              =    -384.04171581 Ry
     estimated scf accuracy    <          2.9E-09 Ry

     iteration #  9     ecut=    60.00 Ry     beta= 0.30
     Davidson diagonalization with overlap

---- Real-time Memory Report at c_bands before calling an iterative solver
          4547 MiB given to the printing process from OS
             0 MiB allocation reported by mallinfo(arena+hblkhd)
         16676 MiB available memory on the node where the printing process lives
------------------
     ethr =  2.02E-12,  avg # of iterations =  5.0

     negative rho (up, down):  1.102E-02 0.000E+00

     total cpu time spent up to now is     1705.3 secs

     End of self-consistent calculation

          k = 0.0000 0.0000 0.0000 (362139 PWs)   bands (ev):

   -22.5134 -21.9006 -21.6189 -20.9864 -20.8803 -20.2240 -19.9035 -19.7652
   -19.3371 -18.7073 -18.5219 -18.4903 -18.0549 -17.7524 -17.4603 -17.0991
   -15.7187 -15.6679 -15.6648 -15.5092 -15.4498 -15.0481 -14.0663 -13.9344
   -13.7713 -13.3058 -13.0000 -12.9620 -12.9291 -12.0634 -11.8576 -11.6070
   -11.5813 -11.5666 -11.2988 -10.9055 -10.5793 -10.5680 -10.4033 -10.3182
   -10.2985 -10.1264  -9.9663  -9.9367  -9.8690  -9.7343  -9.5727  -9.5055
    -9.3097  -9.2478  -8.9926  -8.8506  -8.7337  -8.6410  -8.6012  -8.3947
    -8.2128  -8.0951  -7.9346  -7.6453  -7.5401  -7.3092  -7.2302  -7.1255
    -6.4781  -6.3822  -6.2653  -5.9124  -5.6075  -5.1686  -4.5895

     occupation numbers 
     1.0000   1.0000   1.0000   1.0000   1.0000   1.0000   1.0000   1.0000
     1.0000   1.0000   1.0000   1.0000   1.0000   1.0000   1.0000   1.0000
     1.0000   1.0000   1.0000   1.0000   1.0000   1.0000   1.0000   1.0000
     1.0000   1.0000   1.0000   1.0000   1.0000   1.0000   1.0000   1.0000
     1.0000   1.0000   1.0000   1.0000   1.0000   1.0000   1.0000   1.0000
     1.0000   1.0000   1.0000   1.0000   1.0000   1.0000   1.0000   1.0000
     1.0000   1.0000   1.0000   1.0000   1.0000   1.0000   1.0000   1.0000
     1.0000   1.0000   1.0000   1.0000   1.0000   1.0000   1.0000   1.0000
     1.0000   1.0000   1.0000   1.0000   1.0000   1.0000   1.0000

     highest occupied level (ev):    -4.5895

!    total energy              =    -384.04171581 Ry
     estimated scf accuracy    <          1.9E-10 Ry

     The total energy is the sum of the following terms:
     one-electron contribution =   -3470.27782151 Ry
     hartree contribution      =    1750.44615854 Ry
     xc contribution           =    -125.73414607 Ry
     ewald contribution        =    1461.52409323 Ry

     convergence has been achieved in   9 iterations

     negative rho (up, down):  1.102E-02 0.000E+00

     Forces acting on atoms (cartesian axes, Ry/au):

     atom    1 type  1   force =    -0.00015235   -0.00031189    0.00000000
     atom    2 type  1   force =     0.00094814    0.00013854    0.00000000
     atom    3 type  1   force =    -0.00026481   -0.00113391   -0.00000000
     atom    4 type  1   force =     0.00133933    0.00124184    0.00000000
     atom    5 type  1   force =     0.00152514    0.00145494    0.00000000
     atom    6 type  1   force =     0.00085196    0.00017934   -0.00000000
     atom    7 type  1   force =     0.00094803   -0.00013875   -0.00000000
     atom    8 type  1   force =     0.00152516   -0.00145534   -0.00000000
     atom    9 type  1   force =     0.00000025    0.00133679    0.00000000
     atom   10 type  1   force =    -0.00133963    0.00124188    0.00000000
     atom   11 type  1   force =     0.00177898    0.00236527   -0.00000000
     atom   12 type  1   force =    -0.00000018   -0.00072293   -0.00000000
     atom   13 type  1   force =     0.00085214   -0.00017950   -0.00000000
     atom   14 type  1   force =     0.00177882   -0.00236526   -0.00000000
     atom   15 type  1   force =    -0.00015254    0.00031174    0.00000000
     atom   16 type  1   force =    -0.00026484    0.00113403    0.00000000
     atom   17 type  1   force =     0.00026484   -0.00113403    0.00000000
     atom   18 type  1   force =     0.00015254   -0.00031174    0.00000000
     atom   19 type  1   force =    -0.00177882    0.00236526   -0.00000000
     atom   20 type  1   force =    -0.00085214    0.00017950   -0.00000000
     atom   21 type  1   force =     0.00000018    0.00072293   -0.00000000
     atom   22 type  1   force =    -0.00177898   -0.00236527   -0.00000000
     atom   23 type  1   force =     0.00133963   -0.00124188    0.00000000
     atom   24 type  1   force =    -0.00000025   -0.00133679    0.00000000
     atom   25 type  1   force =    -0.00152516    0.00145534   -0.00000000
     atom   26 type  1   force =    -0.00094803    0.00013875   -0.00000000
     atom   27 type  1   force =    -0.00085196   -0.00017934   -0.00000000
     atom   28 type  1   force =    -0.00152514   -0.00145494    0.00000000
     atom   29 type  1   force =    -0.00133933   -0.00124184    0.00000000
     atom   30 type  1   force =     0.00026481    0.00113391   -0.00000000
     atom   31 type  1   force =    -0.00094814   -0.00013854    0.00000000
     atom   32 type  1   force =     0.00015235    0.00031189    0.00000000
     atom   33 type  2   force =     0.00132525   -0.00185851   -0.00000000
     atom   34 type  2   force =     0.00024289    0.00210949   -0.00000000
     atom   35 type  2   force =    -0.00317943    0.00020163    0.00000000
     atom   36 type  2   force =     0.00024308   -0.00210955    0.00000000
     atom   37 type  2   force =     0.00132544    0.00185841   -0.00000000
     atom   38 type  2   force =    -0.00317959   -0.00020190   -0.00000000
     atom   39 type  2   force =     0.00317959    0.00020190   -0.00000000
     atom   40 type  2   force =    -0.00132544   -0.00185841   -0.00000000
     atom   41 type  2   force =    -0.00024308    0.00210955    0.00000000
     atom   42 type  2   force =     0.00317943   -0.00020163    0.00000000
     atom   43 type  2   force =    -0.00024289   -0.00210949   -0.00000000
     atom   44 type  2   force =    -0.00132525    0.00185851   -0.00000000
     atom   45 type  2   force =     0.00000007   -0.00102000   -0.00000000
     atom   46 type  2   force =    -0.00000007    0.00102000   -0.00000000
     The non-local contrib.  to forces
     atom    1 type  1   force =    -0.00239763    0.03665024    0.00000000
     atom    2 type  1   force =     0.02354758   -0.00734876    0.00000000
     atom    3 type  1   force =     0.03539842    0.01772647   -0.00000000
     atom    4 type  1   force =    -0.01151548    0.02898947    0.00000000
     atom    5 type  1   force =     0.02384672    0.00357140    0.00000000
     atom    6 type  1   force =     0.01200466    0.00570074   -0.00000000
     atom    7 type  1   force =     0.02354799    0.00734699   -0.00000000
     atom    8 type  1   force =     0.02384663   -0.00357353    0.00000000
     atom    9 type  1   force =    -0.00000039    0.02319387    0.00000000
     atom   10 type  1   force =     0.01151324    0.02899037   -0.00000000
     atom   11 type  1   force =     0.00180548    0.00674187    0.00000000
     atom   12 type  1   force =    -0.00000047    0.01077681   -0.00000000
     atom   13 type  1   force =     0.01200539   -0.00570168   -0.00000000
     atom   14 type  1   force =     0.00180537   -0.00674246    0.00000000
     atom   15 type  1   force =    -0.00239550   -0.03665299    0.00000000
     atom   16 type  1   force =     0.03539968   -0.01773010    0.00000000
     atom   17 type  1   force =    -0.03539968    0.01773010    0.00000000
     atom   18 type  1   force =     0.00239550    0.03665299    0.00000000
     atom   19 type  1   force =    -0.00180537    0.00674246    0.00000000
     atom   20 type  1   force =    -0.01200539    0.00570168   -0.00000000
     atom   21 type  1   force =     0.00000047   -0.01077681   -0.00000000
     atom   22 type  1   force =    -0.00180548   -0.00674187    0.00000000
     atom   23 type  1   force =    -0.01151324   -0.02899037   -0.00000000
     atom   24 type  1   force =     0.00000039   -0.02319387    0.00000000
     atom   25 type  1   force =    -0.02384663    0.00357353    0.00000000
     atom   26 type  1   force =    -0.02354799   -0.00734699   -0.00000000
     atom   27 type  1   force =    -0.01200466   -0.00570074   -0.00000000
     atom   28 type  1   force =    -0.02384672   -0.00357140    0.00000000
     atom   29 type  1   force =     0.01151548   -0.02898947    0.00000000
     atom   30 type  1   force =    -0.03539842   -0.01772647   -0.00000000
     atom   31 type  1   force =    -0.02354758    0.00734876    0.00000000
     atom   32 type  1   force =     0.00239763   -0.03665024    0.00000000
     atom   33 type  2   force =     0.06724490    0.03782415   -0.00000000
     atom   34 type  2   force =     0.06643475    0.03891132   -0.00000000
     atom   35 type  2   force =    -0.00103930    0.07716045   -0.00000000
     atom   36 type  2   force =     0.06643486   -0.03891143   -0.00000000
     atom   37 type  2   force =     0.06724502   -0.03782437   -0.00000000
     atom   38 type  2   force =    -0.00103898   -0.07716057   -0.00000000
     atom   39 type  2   force =     0.00103898    0.07716057   -0.00000000
     atom   40 type  2   force =    -0.06724502    0.03782437   -0.00000000
     atom   41 type  2   force =    -0.06643486    0.03891143   -0.00000000
     atom   42 type  2   force =     0.00103930   -0.07716045   -0.00000000
     atom   43 type  2   force =    -0.06643475   -0.03891132   -0.00000000
     atom   44 type  2   force =    -0.06724490   -0.03782415   -0.00000000
     atom   45 type  2   force =    -0.00000015    0.07690298   -0.00000000
     atom   46 type  2   force =     0.00000015   -0.07690298   -0.00000000
     The ionic contribution  to forces
     atom    1 type  1   force =    -8.74498766   -7.83898630   -0.00000001
     atom    2 type  1   force =   -11.26736255   -2.96836021   -0.00000001
     atom    3 type  1   force =    -3.78654763  -11.03916487    0.00000000
     atom    4 type  1   force =    -1.92922457   -7.71902521   -0.00000000
     atom    5 type  1   force =    -7.23954738   -3.85848295   -0.00000001
     atom    6 type  1   force =    -3.97906020   -1.63406725    0.00000000
     atom    7 type  1   force =   -11.26798014    2.97868364    0.00000000
     atom    8 type  1   force =    -7.24191080    3.86776444    0.00000000
     atom    9 type  1   force =     0.00555597  -11.45221620   -0.00000000
     atom   10 type  1   force =     1.93734504   -7.72333636   -0.00000000
     atom   11 type  1   force =    -1.89793823   -3.33539180    0.00000000
     atom   12 type  1   force =     0.00096868   -1.53126363    0.00000001
     atom   13 type  1   force =    -3.98063597    1.64041630    0.00000001
     atom   14 type  1   force =    -1.90169362    3.33891034    0.00000001
     atom   15 type  1   force =    -8.75017059    7.85034924   -0.00000000
     atom   16 type  1   force =    -3.79561908   11.04867709   -0.00000000
     atom   17 type  1   force =     3.79561888  -11.04867698   -0.00000000
     atom   18 type  1   force =     8.75017053   -7.85034914   -0.00000000
     atom   19 type  1   force =     1.90169354   -3.33891060    0.00000001
     atom   20 type  1   force =     3.98063594   -1.64041640    0.00000001
     atom   21 type  1   force =    -0.00096868    1.53126342    0.00000001
     atom   22 type  1   force =     1.89793831    3.33539154    0.00000000
     atom   23 type  1   force =    -1.93734555    7.72333605   -0.00000000
     atom   24 type  1   force =    -0.00555597   11.45221060   -0.00000000
     atom   25 type  1   force =     7.24191076   -3.86776454    0.00000000
     atom   26 type  1   force =    11.26798013   -2.97868367    0.00000000
     atom   27 type  1   force =     3.97906023    1.63406714    0.00000000
     atom   28 type  1   force =     7.23954743    3.85848285   -0.00000001
     atom   29 type  1   force =     1.92922508    7.71902490   -0.00000000
     atom   30 type  1   force =     3.78654783   11.03916499    0.00000000
     atom   31 type  1   force =    11.26736256    2.96836018   -0.00000001
     atom   32 type  1   force =     8.74498773    7.83898640   -0.00000001
     atom   33 type  2   force =    -3.48915228   -2.62843408    0.00000000
     atom   34 type  2   force =    -4.01837874   -1.60310330    0.00000000
     atom   35 type  2   force =    -0.80823697   -4.30263877    0.00000000
     atom   36 type  2   force =    -4.01846047    1.60593566    0.00000000
     atom   37 type  2   force =    -3.49021174    2.63207349   -0.00000000
     atom   38 type  2   force =    -0.81154915    4.30565726    0.00000000
     atom   39 type  2   force =     0.81154915   -4.30565720    0.00000000
     atom   40 type  2   force =     3.49021173   -2.63207348   -0.00000000
     atom   41 type  2   force =     4.01846046   -1.60593566    0.00000000
     atom   42 type  2   force =     0.80823697    4.30263883    0.00000000
     atom   43 type  2   force =     4.01837875    1.60310330    0.00000000
     atom   44 type  2   force =     3.48915229    2.62843410    0.00000000
     atom   45 type  2   force =     0.00201624   -4.51848397   -0.00000000
     atom   46 type  2   force =    -0.00201624    4.51849082   -0.00000000
     The local contribution  to forces
     atom    1 type  1   force =     8.74572743    7.80236056    0.00000001
     atom    2 type  1   force =    11.24404603    2.97482659    0.00000001
     atom    3 type  1   force =     3.75194717   11.01918308   -0.00000000
     atom    4 type  1   force =     1.94161710    7.69153841    0.00000000
     atom    5 type  1   force =     7.21735366    3.85614751    0.00000001
     atom    6 type  1   force =     3.96802202    1.62860925   -0.00000000
     atom    7 type  1   force =    11.24466303   -2.98514849   -0.00000000
     atom    8 type  1   force =     7.21971730   -3.86542732   -0.00000000
     atom    9 type  1   force =    -0.00555532   11.42940211    0.00000000
     atom   10 type  1   force =    -1.94973560    7.69584879    0.00000000
     atom   11 type  1   force =     1.89785259    3.33094001   -0.00000000
     atom   12 type  1   force =    -0.00096833    1.52001707   -0.00000001
     atom   13 type  1   force =     3.96959721   -1.63495755   -0.00000001
     atom   14 type  1   force =     1.90160804   -3.33445790   -0.00000001
     atom   15 type  1   force =     8.75090811   -7.81372087    0.00000000
     atom   16 type  1   force =     3.76101734  -11.02869167    0.00000000
     atom   17 type  1   force =    -3.76101713   11.02869152    0.00000000
     atom   18 type  1   force =    -8.75090805    7.81372078    0.00000000
     atom   19 type  1   force =    -1.90160796    3.33445821   -0.00000001
     atom   20 type  1   force =    -3.96959716    1.63495768   -0.00000001
     atom   21 type  1   force =     0.00096833   -1.52001685   -0.00000001
     atom   22 type  1   force =    -1.89785267   -3.33093969   -0.00000000
     atom   23 type  1   force =     1.94973619   -7.69584848    0.00000000
     atom   24 type  1   force =     0.00555532  -11.42939686    0.00000000
     atom   25 type  1   force =    -7.21971725    3.86542742   -0.00000000
     atom   26 type  1   force =   -11.24466301    2.98514852   -0.00000000
     atom   27 type  1   force =    -3.96802207   -1.62860913   -0.00000000
     atom   28 type  1   force =    -7.21735370   -3.85614741    0.00000001
     atom   29 type  1   force =    -1.94161769   -7.69153809    0.00000000
     atom   30 type  1   force =    -3.75194737  -11.01918324   -0.00000000
     atom   31 type  1   force =   -11.24404605   -2.97482656    0.00000001
     atom   32 type  1   force =    -8.74572749   -7.80236065    0.00000001
     atom   33 type  2   force =     3.42323276    2.58875167   -0.00000000
     atom   34 type  2   force =     3.95218731    1.56630202   -0.00000000
     atom   35 type  2   force =     0.80609718    4.22568023   -0.00000000
     atom   36 type  2   force =     3.95226910   -1.56913433   -0.00000000
     atom   37 type  2   force =     3.42429229   -2.59239095    0.00000000
     atom   38 type  2   force =     0.80940888   -4.22869886   -0.00000000
     atom   39 type  2   force =    -0.80940888    4.22869880   -0.00000000
     atom   40 type  2   force =    -3.42429228    2.59239094    0.00000000
     atom   41 type  2   force =    -3.95226910    1.56913434   -0.00000000
     atom   42 type  2   force =    -0.80609718   -4.22568030   -0.00000000
     atom   43 type  2   force =    -3.95218731   -1.56630202   -0.00000000
     atom   44 type  2   force =    -3.42323277   -2.58875169   -0.00000000
     atom   45 type  2   force =    -0.00201602    4.44056224    0.00000000
     atom   46 type  2   force =     0.00201602   -4.44056666    0.00000000
     The core correction contribution to forces
     atom    1 type  1   force =     0.00150821   -0.00033500    0.00000000
     atom    2 type  1   force =     0.00071780    0.00102502    0.00000000
     atom    3 type  1   force =    -0.00106103    0.00112438   -0.00000000
     atom    4 type  1   force =     0.00046301   -0.00025639    0.00000000
     atom    5 type  1   force =    -0.00012542    0.00022092    0.00000000
     atom    6 type  1   force =    -0.00010965   -0.00006458    0.00000000
     atom    7 type  1   force =     0.00071785   -0.00102498   -0.00000000
     atom    8 type  1   force =    -0.00012554   -0.00022089   -0.00000000
     atom    9 type  1   force =    -0.00000000    0.00096146    0.00000000
     atom   10 type  1   force =    -0.00046305   -0.00025648    0.00000000
     atom   11 type  1   force =     0.00006261    0.00007922   -0.00000000
     atom   12 type  1   force =    -0.00000006   -0.00025245   -0.00000000
     atom   13 type  1   force =    -0.00010957    0.00006462   -0.00000000
     atom   14 type  1   force =     0.00006250   -0.00007921   -0.00000000
     atom   15 type  1   force =     0.00150816    0.00033499    0.00000000
     atom   16 type  1   force =    -0.00106103   -0.00112431    0.00000000
     atom   17 type  1   force =     0.00106103    0.00112431    0.00000000
     atom   18 type  1   force =    -0.00150816   -0.00033499    0.00000000
     atom   19 type  1   force =    -0.00006250    0.00007921   -0.00000000
     atom   20 type  1   force =     0.00010957   -0.00006462   -0.00000000
     atom   21 type  1   force =     0.00000006    0.00025245   -0.00000000
     atom   22 type  1   force =    -0.00006261   -0.00007922   -0.00000000
     atom   23 type  1   force =     0.00046305    0.00025648    0.00000000
     atom   24 type  1   force =     0.00000000   -0.00096143    0.00000000
     atom   25 type  1   force =     0.00012554    0.00022089   -0.00000000
     atom   26 type  1   force =    -0.00071785    0.00102498   -0.00000000
     atom   27 type  1   force =     0.00010965    0.00006458   -0.00000000
     atom   28 type  1   force =     0.00012542   -0.00022092    0.00000000
     atom   29 type  1   force =    -0.00046301    0.00025639    0.00000000
     atom   30 type  1   force =     0.00106103   -0.00112438   -0.00000000
     atom   31 type  1   force =    -0.00071780   -0.00102502    0.00000000
     atom   32 type  1   force =    -0.00150821    0.00033500    0.00000000
     atom   33 type  2   force =     0.00000000    0.00000000    0.00000000
     atom   34 type  2   force =     0.00000000    0.00000000    0.00000000
     atom   35 type  2   force =     0.00000000    0.00000000    0.00000000
     atom   36 type  2   force =     0.00000000    0.00000000    0.00000000
     atom   37 type  2   force =     0.00000000    0.00000000    0.00000000
     atom   38 type  2   force =     0.00000000    0.00000000    0.00000000
     atom   39 type  2   force =     0.00000000    0.00000000    0.00000000
     atom   40 type  2   force =     0.00000000    0.00000000    0.00000000
     atom   41 type  2   force =     0.00000000    0.00000000    0.00000000
     atom   42 type  2   force =     0.00000000    0.00000000    0.00000000
     atom   43 type  2   force =     0.00000000    0.00000000    0.00000000
     atom   44 type  2   force =     0.00000000    0.00000000    0.00000000
     atom   45 type  2   force =     0.00000000    0.00000000    0.00000000
     atom   46 type  2   force =     0.00000000    0.00000000    0.00000000
     The Hubbard contrib.    to forces
     atom    1 type  1   force =     0.00000000    0.00000000    0.00000000
     atom    2 type  1   force =     0.00000000    0.00000000    0.00000000
     atom    3 type  1   force =     0.00000000    0.00000000    0.00000000
     atom    4 type  1   force =     0.00000000    0.00000000    0.00000000
     atom    5 type  1   force =     0.00000000    0.00000000    0.00000000
     atom    6 type  1   force =     0.00000000    0.00000000    0.00000000
     atom    7 type  1   force =     0.00000000    0.00000000    0.00000000
     atom    8 type  1   force =     0.00000000    0.00000000    0.00000000
     atom    9 type  1   force =     0.00000000    0.00000000    0.00000000
     atom   10 type  1   force =     0.00000000    0.00000000    0.00000000
     atom   11 type  1   force =     0.00000000    0.00000000    0.00000000
     atom   12 type  1   force =     0.00000000    0.00000000    0.00000000
     atom   13 type  1   force =     0.00000000    0.00000000    0.00000000
     atom   14 type  1   force =     0.00000000    0.00000000    0.00000000
     atom   15 type  1   force =     0.00000000    0.00000000    0.00000000
     atom   16 type  1   force =     0.00000000    0.00000000    0.00000000
     atom   17 type  1   force =     0.00000000    0.00000000    0.00000000
     atom   18 type  1   force =     0.00000000    0.00000000    0.00000000
     atom   19 type  1   force =     0.00000000    0.00000000    0.00000000
     atom   20 type  1   force =     0.00000000    0.00000000    0.00000000
     atom   21 type  1   force =     0.00000000    0.00000000    0.00000000
     atom   22 type  1   force =     0.00000000    0.00000000    0.00000000
     atom   23 type  1   force =     0.00000000    0.00000000    0.00000000
     atom   24 type  1   force =     0.00000000    0.00000000    0.00000000
     atom   25 type  1   force =     0.00000000    0.00000000    0.00000000
     atom   26 type  1   force =     0.00000000    0.00000000    0.00000000
     atom   27 type  1   force =     0.00000000    0.00000000    0.00000000
     atom   28 type  1   force =     0.00000000    0.00000000    0.00000000
     atom   29 type  1   force =     0.00000000    0.00000000    0.00000000
     atom   30 type  1   force =     0.00000000    0.00000000    0.00000000
     atom   31 type  1   force =     0.00000000    0.00000000    0.00000000
     atom   32 type  1   force =     0.00000000    0.00000000    0.00000000
     atom   33 type  2   force =     0.00000000    0.00000000    0.00000000
     atom   34 type  2   force =     0.00000000    0.00000000    0.00000000
     atom   35 type  2   force =     0.00000000    0.00000000    0.00000000
     atom   36 type  2   force =     0.00000000    0.00000000    0.00000000
     atom   37 type  2   force =     0.00000000    0.00000000    0.00000000
     atom   38 type  2   force =     0.00000000    0.00000000    0.00000000
     atom   39 type  2   force =     0.00000000    0.00000000    0.00000000
     atom   40 type  2   force =     0.00000000    0.00000000    0.00000000
     atom   41 type  2   force =     0.00000000    0.00000000    0.00000000
     atom   42 type  2   force =     0.00000000    0.00000000    0.00000000
     atom   43 type  2   force =     0.00000000    0.00000000    0.00000000
     atom   44 type  2   force =     0.00000000    0.00000000    0.00000000
     atom   45 type  2   force =     0.00000000    0.00000000    0.00000000
     atom   46 type  2   force =     0.00000000    0.00000000    0.00000000
     The SCF correction term to forces
     atom    1 type  1   force =    -0.00000270   -0.00000139    0.00000000
     atom    2 type  1   force =    -0.00000072   -0.00000410    0.00000000
     atom    3 type  1   force =    -0.00000174   -0.00000300   -0.00000000
     atom    4 type  1   force =    -0.00000077   -0.00000442    0.00000000
     atom    5 type  1   force =    -0.00000243   -0.00000194    0.00000000
     atom    6 type  1   force =    -0.00000487    0.00000119   -0.00000000
     atom    7 type  1   force =    -0.00000070    0.00000409    0.00000000
     atom    8 type  1   force =    -0.00000243    0.00000195    0.00000000
     atom    9 type  1   force =    -0.00000001   -0.00000462   -0.00000000
     atom   10 type  1   force =     0.00000078   -0.00000444    0.00000000
     atom   11 type  1   force =    -0.00000347   -0.00000400   -0.00000000
     atom   12 type  1   force =    -0.00000001   -0.00000072   -0.00000000
     atom   13 type  1   force =    -0.00000490   -0.00000118    0.00000000
     atom   14 type  1   force =    -0.00000347    0.00000399    0.00000000
     atom   15 type  1   force =    -0.00000271    0.00000138    0.00000000
     atom   16 type  1   force =    -0.00000174    0.00000300    0.00000000
     atom   17 type  1   force =     0.00000174   -0.00000300    0.00000000
     atom   18 type  1   force =     0.00000271   -0.00000138    0.00000000
     atom   19 type  1   force =     0.00000347   -0.00000399    0.00000000
     atom   20 type  1   force =     0.00000490    0.00000118   -0.00000000
     atom   21 type  1   force =     0.00000001    0.00000072   -0.00000000
     atom   22 type  1   force =     0.00000347    0.00000400    0.00000000
     atom   23 type  1   force =    -0.00000078    0.00000444   -0.00000000
     atom   24 type  1   force =     0.00000001    0.00000462   -0.00000000
     atom   25 type  1   force =     0.00000243   -0.00000195    0.00000000
     atom   26 type  1   force =     0.00000070   -0.00000409    0.00000000
     atom   27 type  1   force =     0.00000487   -0.00000119    0.00000000
     atom   28 type  1   force =     0.00000243    0.00000194   -0.00000000
     atom   29 type  1   force =     0.00000077    0.00000442   -0.00000000
     atom   30 type  1   force =     0.00000174    0.00000300    0.00000000
     atom   31 type  1   force =     0.00000072    0.00000410    0.00000000
     atom   32 type  1   force =     0.00000270    0.00000139    0.00000000
     atom   33 type  2   force =    -0.00000014   -0.00000025    0.00000000
     atom   34 type  2   force =    -0.00000043   -0.00000056    0.00000000
     atom   35 type  2   force =    -0.00000035   -0.00000028   -0.00000000
     atom   36 type  2   force =    -0.00000041    0.00000056   -0.00000000
     atom   37 type  2   force =    -0.00000013    0.00000024    0.00000000
     atom   38 type  2   force =    -0.00000034    0.00000027   -0.00000000
     atom   39 type  2   force =     0.00000034   -0.00000027   -0.00000000
     atom   40 type  2   force =     0.00000013   -0.00000024    0.00000000
     atom   41 type  2   force =     0.00000041   -0.00000056   -0.00000000
     atom   42 type  2   force =     0.00000035    0.00000028   -0.00000000
     atom   43 type  2   force =     0.00000043    0.00000056   -0.00000000
     atom   44 type  2   force =     0.00000014    0.00000025   -0.00000000
     atom   45 type  2   force =    -0.00000000   -0.00000004    0.00000000
     atom   46 type  2   force =     0.00000000    0.00000004   -0.00000000

     Total force =     0.012843     Total SCF correction =     0.000023
     Energy error            =      1.9E-04 Ry
     Gradient error          =      3.2E-03 Ry/Bohr

     number of scf cycles    =   6
     number of bfgs steps    =   4

     energy             old  =    -384.0415223817 Ry
     energy             new  =    -384.0417158083 Ry

     CASE: energy            _new < energy            _old

     new trust radius        =       0.0107920144 bohr
     new conv_thr            =       0.0000000002 Ry


ATOMIC_POSITIONS (angstrom)
C                2.3076105362        8.2083649521        4.9999999993
C                1.0652696442       10.3696760871        4.9999999995
C                3.4920067501        7.5206150491        4.9999999995
C                4.7494061873        8.2037820093        5.0000000000
C                2.2757694067        9.6376254995        4.9999999993
C                3.5093241444       10.3480050148        4.9999999999
C                1.0652698550       11.7522949357        4.9999999998
C                2.2757699181       12.4843450781        5.0000000003
C                5.9760633504        7.5229708411        4.9999999999
C                7.2027203500        8.2037823802        5.0000000002
C                4.7443669236        9.6362118955        5.0000000005
C                5.9760630372       10.3447172884        5.0000000009
C                3.5093245239       11.7739657840        5.0000000007
C                4.7443670640       12.4857593513        5.0000000008
C                2.3076106249       13.9136057235        5.0000000002
C                3.4920064747       14.6013560051        5.0000000000
C                8.4601198053        7.5206156249        5.0000000000
C                9.6445156551        8.2083659065        5.0000000002
C                7.2077592160        9.6362122887        5.0000000008
C                8.4428017561       10.3480058560        5.0000000007
C                5.9760632428       11.7772543516        5.0000000009
C                7.2077593564       12.4857597445        5.0000000005
C                4.7494059300       13.9181892498        5.0000000002
C                5.9760629296       14.5990007889        4.9999999999
C                9.6763563619        9.6376265619        5.0000000003
C               10.8868564250       10.3696767043        4.9999999998
C                8.4428021356       11.7739666252        4.9999999999
C                9.6763568733       12.4843461405        4.9999999993
C                7.2027200927       13.9181896207        5.0000000000
C                8.4601195299       14.6013565809        4.9999999995
C               10.8868566358       11.7522955529        4.9999999995
C                9.6445157438       13.9136066779        4.9999999993
H                1.3564311923        7.6724316428        4.9999999995
H                0.1224801743        9.8189282961        4.9999999997
H                3.5039751995        6.4292759230        5.0000000000
H                0.1224806801       12.3030431289        5.0000000001
H                1.3564317146       14.4495400554        5.0000000000
H                3.5039746139       15.6926952605        5.0000000001
H                8.4481516661        6.4292763695        5.0000000001
H               10.5956945654        7.6724315746        5.0000000000
H               11.8296455999        9.8189285111        5.0000000001
H                8.4481510805       15.6926957070        5.0000000000
H               11.8296461057       12.3030433439        4.9999999997
H               10.5956950877       14.4495399872        4.9999999995
H                5.9760634249        6.4307667100        4.9999999998
H                5.9760628551       15.6912032900        4.9999999998



     Writing config-only to output data dir /home/nihal/Desktop/OtptfGG/gqd_1.save/ :
     XML data file
     NEW-OLD atomic charge density approx. for the potential

     negative rho (up, down):  1.103E-02 0.000E+00

     total cpu time spent up to now is     1721.5 secs

     Self-consistent Calculation

     iteration #  1     ecut=    60.00 Ry     beta= 0.30
     Davidson diagonalization with overlap

---- Real-time Memory Report at c_bands before calling an iterative solver
          4547 MiB given to the printing process from OS
             0 MiB allocation reported by mallinfo(arena+hblkhd)
         18518 MiB available memory on the node where the printing process lives
------------------
     ethr =  1.00E-06,  avg # of iterations =  3.0

     Threshold (ethr) on eigenvalues was too large:
     Diagonalizing with lowered threshold

     Davidson diagonalization with overlap

---- Real-time Memory Report at c_bands before calling an iterative solver
          4547 MiB given to the printing process from OS
             0 MiB allocation reported by mallinfo(arena+hblkhd)
         18071 MiB available memory on the node where the printing process lives
------------------
     ethr =  4.65E-08,  avg # of iterations =  4.0

     negative rho (up, down):  1.103E-02 0.000E+00

     total cpu time spent up to now is     1759.9 secs

     total energy              =    -384.04195116 Ry
     estimated scf accuracy    <       0.00008771 Ry

     iteration #  2     ecut=    60.00 Ry     beta= 0.30
     Davidson diagonalization with overlap

---- Real-time Memory Report at c_bands before calling an iterative solver
          4547 MiB given to the printing process from OS
             0 MiB allocation reported by mallinfo(arena+hblkhd)
         17318 MiB available memory on the node where the printing process lives
------------------
     ethr =  6.18E-08,  avg # of iterations =  2.0

     negative rho (up, down):  1.103E-02 0.000E+00

     total cpu time spent up to now is     1778.6 secs

     total energy              =    -384.04195189 Ry
     estimated scf accuracy    <       0.00002444 Ry

     iteration #  3     ecut=    60.00 Ry     beta= 0.30
     Davidson diagonalization with overlap

---- Real-time Memory Report at c_bands before calling an iterative solver
          4547 MiB given to the printing process from OS
             0 MiB allocation reported by mallinfo(arena+hblkhd)
         17207 MiB available memory on the node where the printing process lives
------------------
     ethr =  1.72E-08,  avg # of iterations =  4.0

     negative rho (up, down):  1.103E-02 0.000E+00

     total cpu time spent up to now is     1799.2 secs

     total energy              =    -384.04195448 Ry
     estimated scf accuracy    <       0.00000486 Ry

     iteration #  4     ecut=    60.00 Ry     beta= 0.30
     Davidson diagonalization with overlap

---- Real-time Memory Report at c_bands before calling an iterative solver
          4547 MiB given to the printing process from OS
             0 MiB allocation reported by mallinfo(arena+hblkhd)
         17121 MiB available memory on the node where the printing process lives
------------------
     ethr =  3.42E-09,  avg # of iterations =  5.0

     negative rho (up, down):  1.103E-02 0.000E+00

     total cpu time spent up to now is     1820.2 secs

     total energy              =    -384.04195513 Ry
     estimated scf accuracy    <       0.00000174 Ry

     iteration #  5     ecut=    60.00 Ry     beta= 0.30
     Davidson diagonalization with overlap

---- Real-time Memory Report at c_bands before calling an iterative solver
          4547 MiB given to the printing process from OS
             0 MiB allocation reported by mallinfo(arena+hblkhd)
         17030 MiB available memory on the node where the printing process lives
------------------
     ethr =  1.22E-09,  avg # of iterations =  5.0

     negative rho (up, down):  1.103E-02 0.000E+00

     total cpu time spent up to now is     1840.4 secs

     total energy              =    -384.04195539 Ry
     estimated scf accuracy    <       0.00000018 Ry

     iteration #  6     ecut=    60.00 Ry     beta= 0.30
     Davidson diagonalization with overlap

---- Real-time Memory Report at c_bands before calling an iterative solver
          4547 MiB given to the printing process from OS
             0 MiB allocation reported by mallinfo(arena+hblkhd)
         16951 MiB available memory on the node where the printing process lives
------------------
     ethr =  1.26E-10,  avg # of iterations =  4.0

     negative rho (up, down):  1.103E-02 0.000E+00

     total cpu time spent up to now is     1861.3 secs

     total energy              =    -384.04195540 Ry
     estimated scf accuracy    <       0.00000005 Ry

     iteration #  7     ecut=    60.00 Ry     beta= 0.30
     Davidson diagonalization with overlap

---- Real-time Memory Report at c_bands before calling an iterative solver
          4547 MiB given to the printing process from OS
             0 MiB allocation reported by mallinfo(arena+hblkhd)
         16862 MiB available memory on the node where the printing process lives
------------------
     ethr =  3.56E-11,  avg # of iterations =  5.0

     negative rho (up, down):  1.103E-02 0.000E+00

     total cpu time spent up to now is     1883.3 secs

     total energy              =    -384.04195541 Ry
     estimated scf accuracy    <       0.00000002 Ry

     iteration #  8     ecut=    60.00 Ry     beta= 0.30
     Davidson diagonalization with overlap

---- Real-time Memory Report at c_bands before calling an iterative solver
          4547 MiB given to the printing process from OS
             0 MiB allocation reported by mallinfo(arena+hblkhd)
         16765 MiB available memory on the node where the printing process lives
------------------
     ethr =  1.18E-11,  avg # of iterations =  5.0

     negative rho (up, down):  1.103E-02 0.000E+00

     total cpu time spent up to now is     1903.9 secs

     total energy              =    -384.04195541 Ry
     estimated scf accuracy    <          8.2E-10 Ry

     iteration #  9     ecut=    60.00 Ry     beta= 0.30
     Davidson diagonalization with overlap

---- Real-time Memory Report at c_bands before calling an iterative solver
          4547 MiB given to the printing process from OS
             0 MiB allocation reported by mallinfo(arena+hblkhd)
         16704 MiB available memory on the node where the printing process lives
------------------
     ethr =  5.75E-13,  avg # of iterations =  4.0

     negative rho (up, down):  1.103E-02 0.000E+00

     total cpu time spent up to now is     1925.4 secs

     total energy              =    -384.04195541 Ry
     estimated scf accuracy    <          2.4E-10 Ry

     iteration # 10     ecut=    60.00 Ry     beta= 0.30
     Davidson diagonalization with overlap

---- Real-time Memory Report at c_bands before calling an iterative solver
          4547 MiB given to the printing process from OS
             0 MiB allocation reported by mallinfo(arena+hblkhd)
         16590 MiB available memory on the node where the printing process lives
------------------
     ethr =  1.67E-13,  avg # of iterations =  4.0

     negative rho (up, down):  1.103E-02 0.000E+00

     total cpu time spent up to now is     1945.5 secs

     End of self-consistent calculation

          k = 0.0000 0.0000 0.0000 (362139 PWs)   bands (ev):

   -22.5180 -21.9120 -21.6194 -20.9964 -20.8828 -20.2217 -19.9085 -19.7683
   -19.3386 -18.7111 -18.5213 -18.4898 -18.0582 -17.7571 -17.4601 -17.1027
   -15.7152 -15.6711 -15.6681 -15.5065 -15.4495 -15.0536 -14.0596 -13.9378
   -13.7757 -13.3018 -13.0081 -12.9602 -12.9284 -12.0700 -11.8559 -11.6035
   -11.5762 -11.5679 -11.3070 -10.9020 -10.5796 -10.5714 -10.4016 -10.3042
   -10.3027 -10.1338  -9.9689  -9.9383  -9.8773  -9.7299  -9.5726  -9.5038
    -9.3019  -9.2498  -8.9797  -8.8563  -8.7348  -8.6453  -8.6030  -8.3881
    -8.2161  -8.0929  -7.9345  -7.6461  -7.5418  -7.3127  -7.2275  -7.1253
    -6.4781  -6.3816  -6.2650  -5.9120  -5.6094  -5.1660  -4.5909

     occupation numbers 
     1.0000   1.0000   1.0000   1.0000   1.0000   1.0000   1.0000   1.0000
     1.0000   1.0000   1.0000   1.0000   1.0000   1.0000   1.0000   1.0000
     1.0000   1.0000   1.0000   1.0000   1.0000   1.0000   1.0000   1.0000
     1.0000   1.0000   1.0000   1.0000   1.0000   1.0000   1.0000   1.0000
     1.0000   1.0000   1.0000   1.0000   1.0000   1.0000   1.0000   1.0000
     1.0000   1.0000   1.0000   1.0000   1.0000   1.0000   1.0000   1.0000
     1.0000   1.0000   1.0000   1.0000   1.0000   1.0000   1.0000   1.0000
     1.0000   1.0000   1.0000   1.0000   1.0000   1.0000   1.0000   1.0000
     1.0000   1.0000   1.0000   1.0000   1.0000   1.0000   1.0000

     highest occupied level (ev):    -4.5909

!    total energy              =    -384.04195542 Ry
     estimated scf accuracy    <          1.4E-10 Ry

     The total energy is the sum of the following terms:
     one-electron contribution =   -3471.71643365 Ry
     hartree contribution      =    1751.17530112 Ry
     xc contribution           =    -125.75600631 Ry
     ewald contribution        =    1462.25518342 Ry

     convergence has been achieved in  10 iterations

     negative rho (up, down):  1.103E-02 0.000E+00

     Forces acting on atoms (cartesian axes, Ry/au):

     atom    1 type  1   force =     0.00030009   -0.00098820   -0.00000000
     atom    2 type  1   force =    -0.00071954    0.00099837    0.00000000
     atom    3 type  1   force =    -0.00020865   -0.00023393   -0.00000000
     atom    4 type  1   force =     0.00057853    0.00032003   -0.00000000
     atom    5 type  1   force =    -0.00030796   -0.00136488    0.00000000
     atom    6 type  1   force =     0.00325192    0.00031638    0.00000000
     atom    7 type  1   force =    -0.00071941   -0.00099853    0.00000000
     atom    8 type  1   force =    -0.00030799    0.00136481    0.00000000
     atom    9 type  1   force =     0.00000002    0.00033855   -0.00000000
     atom   10 type  1   force =    -0.00057855    0.00032007    0.00000000
     atom   11 type  1   force =     0.00238596    0.00149447   -0.00000000
     atom   12 type  1   force =     0.00000008    0.00103617    0.00000000
     atom   13 type  1   force =     0.00325189   -0.00031656   -0.00000000
     atom   14 type  1   force =     0.00238608   -0.00149456    0.00000000
     atom   15 type  1   force =     0.00030007    0.00098817   -0.00000000
     atom   16 type  1   force =    -0.00020861    0.00023383   -0.00000000
     atom   17 type  1   force =     0.00020861   -0.00023383   -0.00000000
     atom   18 type  1   force =    -0.00030007   -0.00098817   -0.00000000
     atom   19 type  1   force =    -0.00238608    0.00149456    0.00000000
     atom   20 type  1   force =    -0.00325189    0.00031656   -0.00000000
     atom   21 type  1   force =    -0.00000008   -0.00103617    0.00000000
     atom   22 type  1   force =    -0.00238596   -0.00149447   -0.00000000
     atom   23 type  1   force =     0.00057855   -0.00032007    0.00000000
     atom   24 type  1   force =    -0.00000002   -0.00033855   -0.00000000
     atom   25 type  1   force =     0.00030799   -0.00136481    0.00000000
     atom   26 type  1   force =     0.00071941    0.00099853    0.00000000
     atom   27 type  1   force =    -0.00325192   -0.00031638    0.00000000
     atom   28 type  1   force =     0.00030796    0.00136488    0.00000000
     atom   29 type  1   force =    -0.00057853   -0.00032003   -0.00000000
     atom   30 type  1   force =     0.00020865    0.00023393   -0.00000000
     atom   31 type  1   force =     0.00071954   -0.00099837    0.00000000
     atom   32 type  1   force =    -0.00030009    0.00098820   -0.00000000
     atom   33 type  2   force =     0.00076547   -0.00081477   -0.00000000
     atom   34 type  2   force =     0.00001984    0.00102114   -0.00000000
     atom   35 type  2   force =    -0.00203752   -0.00006678   -0.00000000
     atom   36 type  2   force =     0.00001982   -0.00102112   -0.00000000
     atom   37 type  2   force =     0.00076562    0.00081452   -0.00000000
     atom   38 type  2   force =    -0.00203768    0.00006653   -0.00000000
     atom   39 type  2   force =     0.00203768   -0.00006653   -0.00000000
     atom   40 type  2   force =    -0.00076562   -0.00081452   -0.00000000
     atom   41 type  2   force =    -0.00001982    0.00102112   -0.00000000
     atom   42 type  2   force =     0.00203752    0.00006678   -0.00000000
     atom   43 type  2   force =    -0.00001984   -0.00102114   -0.00000000
     atom   44 type  2   force =    -0.00076547    0.00081477   -0.00000000
     atom   45 type  2   force =     0.00000008   -0.00035014   -0.00000000
     atom   46 type  2   force =    -0.00000008    0.00035014   -0.00000000
     The non-local contrib.  to forces
     atom    1 type  1   force =    -0.00255773    0.03606655   -0.00000000
     atom    2 type  1   force =     0.02198615   -0.00687001   -0.00000000
     atom    3 type  1   force =     0.03569209    0.01788209    0.00000000
     atom    4 type  1   force =    -0.01262286    0.02799023   -0.00000000
     atom    5 type  1   force =     0.02239148    0.00112616    0.00000000
     atom    6 type  1   force =     0.01384785    0.00562301    0.00000000
     atom    7 type  1   force =     0.02198671    0.00686841    0.00000000
     atom    8 type  1   force =     0.02239129   -0.00112787    0.00000000
     atom    9 type  1   force =    -0.00000057    0.02237372    0.00000000
     atom   10 type  1   force =     0.01262077    0.02799113    0.00000000
     atom   11 type  1   force =     0.00237799    0.00587133   -0.00000000
     atom   12 type  1   force =    -0.00000027    0.01203434    0.00000000
     atom   13 type  1   force =     0.01384839   -0.00562387   -0.00000000
     atom   14 type  1   force =     0.00237794   -0.00587201    0.00000000
     atom   15 type  1   force =    -0.00255541   -0.03606912   -0.00000000
     atom   16 type  1   force =     0.03569349   -0.01788583    0.00000000
     atom   17 type  1   force =    -0.03569349    0.01788583    0.00000000
     atom   18 type  1   force =     0.00255541    0.03606912   -0.00000000
     atom   19 type  1   force =    -0.00237794    0.00587201    0.00000000
     atom   20 type  1   force =    -0.01384839    0.00562387   -0.00000000
     atom   21 type  1   force =     0.00000027   -0.01203434    0.00000000
     atom   22 type  1   force =    -0.00237799   -0.00587133   -0.00000000
     atom   23 type  1   force =    -0.01262077   -0.02799113    0.00000000
     atom   24 type  1   force =     0.00000057   -0.02237372    0.00000000
     atom   25 type  1   force =    -0.02239129    0.00112787    0.00000000
     atom   26 type  1   force =    -0.02198671   -0.00686841    0.00000000
     atom   27 type  1   force =    -0.01384785   -0.00562301    0.00000000
     atom   28 type  1   force =    -0.02239148   -0.00112616    0.00000000
     atom   29 type  1   force =     0.01262286   -0.02799023   -0.00000000
     atom   30 type  1   force =    -0.03569209   -0.01788209    0.00000000
     atom   31 type  1   force =    -0.02198615    0.00687001   -0.00000000
     atom   32 type  1   force =     0.00255773   -0.03606655   -0.00000000
     atom   33 type  2   force =     0.06703803    0.03819976   -0.00000000
     atom   34 type  2   force =     0.06672379    0.03865453   -0.00000000
     atom   35 type  2   force =    -0.00055803    0.07722280   -0.00000000
     atom   36 type  2   force =     0.06672390   -0.03865467   -0.00000000
     atom   37 type  2   force =     0.06703814   -0.03820002    0.00000000
     atom   38 type  2   force =    -0.00055770   -0.07722293   -0.00000000
     atom   39 type  2   force =     0.00055770    0.07722293   -0.00000000
     atom   40 type  2   force =    -0.06703814    0.03820002    0.00000000
     atom   41 type  2   force =    -0.06672390    0.03865467   -0.00000000
     atom   42 type  2   force =     0.00055803   -0.07722280   -0.00000000
     atom   43 type  2   force =    -0.06672379   -0.03865453   -0.00000000
     atom   44 type  2   force =    -0.06703803   -0.03819976   -0.00000000
     atom   45 type  2   force =    -0.00000014    0.07680101    0.00000000
     atom   46 type  2   force =     0.00000014   -0.07680101    0.00000000
     The ionic contribution  to forces
     atom    1 type  1   force =    -8.75630234   -7.83233737   -0.00000000
     atom    2 type  1   force =   -11.28176485   -2.97666587   -0.00000000
     atom    3 type  1   force =    -3.77253238  -11.04467437   -0.00000000
     atom    4 type  1   force =    -1.93220887   -7.72627167    0.00000000
     atom    5 type  1   force =    -7.24607866   -3.88052365   -0.00000001
     atom    6 type  1   force =    -3.96338497   -1.63611943   -0.00000000
     atom    7 type  1   force =   -11.28238365    2.98698666   -0.00000000
     atom    8 type  1   force =    -7.24844130    3.88980118    0.00000000
     atom    9 type  1   force =     0.00555343  -11.45990807   -0.00000000
     atom   10 type  1   force =     1.94032890   -7.73058077   -0.00000000
     atom   11 type  1   force =    -1.89648525   -3.33719545    0.00000000
     atom   12 type  1   force =     0.00096936   -1.52962642    0.00000001
     atom   13 type  1   force =    -3.96495861    1.64246884    0.00000001
     atom   14 type  1   force =    -1.90023852    3.34071449    0.00000001
     atom   15 type  1   force =    -8.76148503    7.84369575    0.00000000
     atom   16 type  1   force =    -3.78160470   11.05418619   -0.00000000
     atom   17 type  1   force =     3.78160450  -11.05418607   -0.00000000
     atom   18 type  1   force =     8.76148497   -7.84369566    0.00000000
     atom   19 type  1   force =     1.90023844   -3.34071475    0.00000001
     atom   20 type  1   force =     3.96495858   -1.64246895    0.00000001
     atom   21 type  1   force =    -0.00096936    1.52962621    0.00000001
     atom   22 type  1   force =     1.89648534    3.33719519    0.00000000
     atom   23 type  1   force =    -1.94032941    7.73058046   -0.00000000
     atom   24 type  1   force =    -0.00555343   11.45990248   -0.00000000
     atom   25 type  1   force =     7.24844126   -3.88980128    0.00000000
     atom   26 type  1   force =    11.28238363   -2.98698669   -0.00000000
     atom   27 type  1   force =     3.96338500    1.63611933   -0.00000000
     atom   28 type  1   force =     7.24607871    3.88052354   -0.00000001
     atom   29 type  1   force =     1.93220937    7.72627136    0.00000000
     atom   30 type  1   force =     3.77253258   11.04467448   -0.00000000
     atom   31 type  1   force =    11.28176486    2.97666585   -0.00000000
     atom   32 type  1   force =     8.75630241    7.83233747   -0.00000000
     atom   33 type  2   force =    -3.48664744   -2.63440735   -0.00000000
     atom   34 type  2   force =    -4.02597093   -1.59903113    0.00000000
     atom   35 type  2   force =    -0.81614482   -4.30303182    0.00000000
     atom   36 type  2   force =    -4.02605293    1.60186313    0.00000000
     atom   37 type  2   force =    -3.48770987    2.63804867   -0.00000000
     atom   38 type  2   force =    -0.81945393    4.30605637    0.00000000
     atom   39 type  2   force =     0.81945393   -4.30605631    0.00000000
     atom   40 type  2   force =     3.48770986   -2.63804866   -0.00000000
     atom   41 type  2   force =     4.02605292   -1.60186313    0.00000000
     atom   42 type  2   force =     0.81614482    4.30303188    0.00000000
     atom   43 type  2   force =     4.02597093    1.59903113    0.00000000
     atom   44 type  2   force =     3.48664744    2.63440736   -0.00000000
     atom   45 type  2   force =     0.00201606   -4.51725599   -0.00000000
     atom   46 type  2   force =    -0.00201606    4.51726283   -0.00000000
     The local contribution  to forces
     atom    1 type  1   force =     8.75763944    7.79562930    0.00000000
     atom    2 type  1   force =    11.25832056    2.98350352    0.00000000
     atom    3 type  1   force =     3.73772497   11.02543267    0.00000000
     atom    4 type  1   force =     1.94493189    7.69884826   -0.00000000
     atom    5 type  1   force =     7.22349559    3.87776000    0.00000001
     atom    6 type  1   force =     3.95294311    1.63088114    0.00000000
     atom    7 type  1   force =    11.25893887   -2.99382288    0.00000000
     atom    8 type  1   force =     7.22585848   -3.88703593   -0.00000000
     atom    9 type  1   force =    -0.00555282   11.43689741    0.00000000
     atom   10 type  1   force =    -1.95304981    7.70315657    0.00000000
     atom   11 type  1   force =     1.89643343    3.33273316   -0.00000000
     atom   12 type  1   force =    -0.00096895    1.51889701   -0.00000001
     atom   13 type  1   force =     3.95451611   -1.63722990   -0.00000001
     atom   14 type  1   force =     1.90018702   -3.33625155   -0.00000001
     atom   15 type  1   force =     8.76281983   -7.80698513   -0.00000000
     atom   16 type  1   force =     3.74679594  -11.03494096    0.00000000
     atom   17 type  1   force =    -3.74679573   11.03494081    0.00000000
     atom   18 type  1   force =    -8.76281977    7.80698503   -0.00000000
     atom   19 type  1   force =    -1.90018694    3.33625187   -0.00000001
     atom   20 type  1   force =    -3.95451606    1.63723003   -0.00000001
     atom   21 type  1   force =     0.00096895   -1.51889678   -0.00000001
     atom   22 type  1   force =    -1.89643351   -3.33273284   -0.00000000
     atom   23 type  1   force =     1.95305041   -7.70315626    0.00000000
     atom   24 type  1   force =     0.00555282  -11.43689217    0.00000000
     atom   25 type  1   force =    -7.22585844    3.88703603   -0.00000000
     atom   26 type  1   force =   -11.25893885    2.99382291    0.00000000
     atom   27 type  1   force =    -3.95294316   -1.63088102    0.00000000
     atom   28 type  1   force =    -7.22349564   -3.87775990    0.00000001
     atom   29 type  1   force =    -1.94493248   -7.69884794   -0.00000000
     atom   30 type  1   force =    -3.73772517  -11.02543282    0.00000000
     atom   31 type  1   force =   -11.25832058   -2.98350349    0.00000000
     atom   32 type  1   force =    -8.75763949   -7.79562939    0.00000000
     atom   33 type  2   force =     3.42037522    2.59539202    0.00000000
     atom   34 type  2   force =     3.95926592    1.56139692   -0.00000000
     atom   35 type  2   force =     0.81466568    4.22574259   -0.00000000
     atom   36 type  2   force =     3.95934780   -1.56422877   -0.00000000
     atom   37 type  2   force =     3.42143769   -2.59903334    0.00000000
     atom   38 type  2   force =     0.81797430   -4.22876724   -0.00000000
     atom   39 type  2   force =    -0.81797431    4.22876718   -0.00000000
     atom   40 type  2   force =    -3.42143768    2.59903333    0.00000000
     atom   41 type  2   force =    -3.95934780    1.56422877   -0.00000000
     atom   42 type  2   force =    -0.81466567   -4.22574265   -0.00000000
     atom   43 type  2   force =    -3.95926593   -1.56139692   -0.00000000
     atom   44 type  2   force =    -3.42037522   -2.59539204    0.00000000
     atom   45 type  2   force =    -0.00201583    4.44010683    0.00000000
     atom   46 type  2   force =     0.00201583   -4.44011126    0.00000000
     The core correction contribution to forces
     atom    1 type  1   force =     0.00152454   -0.00035150   -0.00000000
     atom    2 type  1   force =     0.00073733    0.00102857    0.00000000
     atom    3 type  1   force =    -0.00109075    0.00112470   -0.00000000
     atom    4 type  1   force =     0.00048170   -0.00024702    0.00000000
     atom    5 type  1   force =    -0.00011104    0.00026968    0.00000000
     atom    6 type  1   force =    -0.00014768   -0.00006941    0.00000000
     atom    7 type  1   force =     0.00073738   -0.00102855    0.00000000
     atom    8 type  1   force =    -0.00011115   -0.00026965    0.00000000
     atom    9 type  1   force =    -0.00000000    0.00097779   -0.00000000
     atom   10 type  1   force =    -0.00048174   -0.00024711    0.00000000
     atom   11 type  1   force =     0.00006305    0.00008340   -0.00000000
     atom   12 type  1   force =    -0.00000006   -0.00027033    0.00000000
     atom   13 type  1   force =    -0.00014761    0.00006945   -0.00000000
     atom   14 type  1   force =     0.00006294   -0.00008338    0.00000000
     atom   15 type  1   force =     0.00152449    0.00035149   -0.00000000
     atom   16 type  1   force =    -0.00109075   -0.00112463    0.00000000
     atom   17 type  1   force =     0.00109075    0.00112463   -0.00000000
     atom   18 type  1   force =    -0.00152449   -0.00035149   -0.00000000
     atom   19 type  1   force =    -0.00006294    0.00008338    0.00000000
     atom   20 type  1   force =     0.00014761   -0.00006945    0.00000000
     atom   21 type  1   force =     0.00000006    0.00027033    0.00000000
     atom   22 type  1   force =    -0.00006305   -0.00008339    0.00000000
     atom   23 type  1   force =     0.00048174    0.00024711    0.00000000
     atom   24 type  1   force =     0.00000000   -0.00097776   -0.00000000
     atom   25 type  1   force =     0.00011115    0.00026965    0.00000000
     atom   26 type  1   force =    -0.00073738    0.00102855    0.00000000
     atom   27 type  1   force =     0.00014768    0.00006941   -0.00000000
     atom   28 type  1   force =     0.00011104   -0.00026968    0.00000000
     atom   29 type  1   force =    -0.00048170    0.00024702    0.00000000
     atom   30 type  1   force =     0.00109075   -0.00112470   -0.00000000
     atom   31 type  1   force =    -0.00073733   -0.00102857    0.00000000
     atom   32 type  1   force =    -0.00152454    0.00035150    0.00000000
     atom   33 type  2   force =     0.00000000    0.00000000    0.00000000
     atom   34 type  2   force =     0.00000000    0.00000000    0.00000000
     atom   35 type  2   force =     0.00000000    0.00000000    0.00000000
     atom   36 type  2   force =     0.00000000    0.00000000    0.00000000
     atom   37 type  2   force =     0.00000000    0.00000000    0.00000000
     atom   38 type  2   force =     0.00000000    0.00000000    0.00000000
     atom   39 type  2   force =     0.00000000    0.00000000    0.00000000
     atom   40 type  2   force =     0.00000000    0.00000000    0.00000000
     atom   41 type  2   force =     0.00000000    0.00000000    0.00000000
     atom   42 type  2   force =     0.00000000    0.00000000    0.00000000
     atom   43 type  2   force =     0.00000000    0.00000000    0.00000000
     atom   44 type  2   force =     0.00000000    0.00000000    0.00000000
     atom   45 type  2   force =     0.00000000    0.00000000    0.00000000
     atom   46 type  2   force =     0.00000000    0.00000000    0.00000000
     The Hubbard contrib.    to forces
     atom    1 type  1   force =     0.00000000    0.00000000    0.00000000
     atom    2 type  1   force =     0.00000000    0.00000000    0.00000000
     atom    3 type  1   force =     0.00000000    0.00000000    0.00000000
     atom    4 type  1   force =     0.00000000    0.00000000    0.00000000
     atom    5 type  1   force =     0.00000000    0.00000000    0.00000000
     atom    6 type  1   force =     0.00000000    0.00000000    0.00000000
     atom    7 type  1   force =     0.00000000    0.00000000    0.00000000
     atom    8 type  1   force =     0.00000000    0.00000000    0.00000000
     atom    9 type  1   force =     0.00000000    0.00000000    0.00000000
     atom   10 type  1   force =     0.00000000    0.00000000    0.00000000
     atom   11 type  1   force =     0.00000000    0.00000000    0.00000000
     atom   12 type  1   force =     0.00000000    0.00000000    0.00000000
     atom   13 type  1   force =     0.00000000    0.00000000    0.00000000
     atom   14 type  1   force =     0.00000000    0.00000000    0.00000000
     atom   15 type  1   force =     0.00000000    0.00000000    0.00000000
     atom   16 type  1   force =     0.00000000    0.00000000    0.00000000
     atom   17 type  1   force =     0.00000000    0.00000000    0.00000000
     atom   18 type  1   force =     0.00000000    0.00000000    0.00000000
     atom   19 type  1   force =     0.00000000    0.00000000    0.00000000
     atom   20 type  1   force =     0.00000000    0.00000000    0.00000000
     atom   21 type  1   force =     0.00000000    0.00000000    0.00000000
     atom   22 type  1   force =     0.00000000    0.00000000    0.00000000
     atom   23 type  1   force =     0.00000000    0.00000000    0.00000000
     atom   24 type  1   force =     0.00000000    0.00000000    0.00000000
     atom   25 type  1   force =     0.00000000    0.00000000    0.00000000
     atom   26 type  1   force =     0.00000000    0.00000000    0.00000000
     atom   27 type  1   force =     0.00000000    0.00000000    0.00000000
     atom   28 type  1   force =     0.00000000    0.00000000    0.00000000
     atom   29 type  1   force =     0.00000000    0.00000000    0.00000000
     atom   30 type  1   force =     0.00000000    0.00000000    0.00000000
     atom   31 type  1   force =     0.00000000    0.00000000    0.00000000
     atom   32 type  1   force =     0.00000000    0.00000000    0.00000000
     atom   33 type  2   force =     0.00000000    0.00000000    0.00000000
     atom   34 type  2   force =     0.00000000    0.00000000    0.00000000
     atom   35 type  2   force =     0.00000000    0.00000000    0.00000000
     atom   36 type  2   force =     0.00000000    0.00000000    0.00000000
     atom   37 type  2   force =     0.00000000    0.00000000    0.00000000
     atom   38 type  2   force =     0.00000000    0.00000000    0.00000000
     atom   39 type  2   force =     0.00000000    0.00000000    0.00000000
     atom   40 type  2   force =     0.00000000    0.00000000    0.00000000
     atom   41 type  2   force =     0.00000000    0.00000000    0.00000000
     atom   42 type  2   force =     0.00000000    0.00000000    0.00000000
     atom   43 type  2   force =     0.00000000    0.00000000    0.00000000
     atom   44 type  2   force =     0.00000000    0.00000000    0.00000000
     atom   45 type  2   force =     0.00000000    0.00000000    0.00000000
     atom   46 type  2   force =     0.00000000    0.00000000    0.00000000
     The SCF correction term to forces
     atom    1 type  1   force =    -0.00000381    0.00000483    0.00000000
     atom    2 type  1   force =     0.00000127    0.00000217   -0.00000000
     atom    3 type  1   force =    -0.00000257    0.00000096   -0.00000000
     atom    4 type  1   force =    -0.00000338    0.00000024   -0.00000000
     atom    5 type  1   force =    -0.00000534    0.00000292   -0.00000000
     atom    6 type  1   force =    -0.00000639    0.00000108    0.00000000
     atom    7 type  1   force =     0.00000128   -0.00000217   -0.00000000
     atom    8 type  1   force =    -0.00000531   -0.00000291   -0.00000000
     atom    9 type  1   force =    -0.00000001   -0.00000246    0.00000000
     atom   10 type  1   force =     0.00000338    0.00000025    0.00000000
     atom   11 type  1   force =    -0.00000326    0.00000206   -0.00000000
     atom   12 type  1   force =    -0.00000000    0.00000158    0.00000000
     atom   13 type  1   force =    -0.00000638   -0.00000107   -0.00000000
     atom   14 type  1   force =    -0.00000329   -0.00000209    0.00000000
     atom   15 type  1   force =    -0.00000380   -0.00000483   -0.00000000
     atom   16 type  1   force =    -0.00000259   -0.00000096   -0.00000000
     atom   17 type  1   force =     0.00000259    0.00000096    0.00000000
     atom   18 type  1   force =     0.00000380    0.00000483   -0.00000000
     atom   19 type  1   force =     0.00000329    0.00000209   -0.00000000
     atom   20 type  1   force =     0.00000638    0.00000107    0.00000000
     atom   21 type  1   force =     0.00000000   -0.00000158    0.00000000
     atom   22 type  1   force =     0.00000326   -0.00000206   -0.00000000
     atom   23 type  1   force =    -0.00000338   -0.00000025    0.00000000
     atom   24 type  1   force =     0.00000001    0.00000246    0.00000000
     atom   25 type  1   force =     0.00000531    0.00000291    0.00000000
     atom   26 type  1   force =    -0.00000128    0.00000217   -0.00000000
     atom   27 type  1   force =     0.00000639   -0.00000108    0.00000000
     atom   28 type  1   force =     0.00000534   -0.00000292   -0.00000000
     atom   29 type  1   force =     0.00000338   -0.00000024   -0.00000000
     atom   30 type  1   force =     0.00000257   -0.00000096   -0.00000000
     atom   31 type  1   force =    -0.00000127   -0.00000217   -0.00000000
     atom   32 type  1   force =     0.00000381   -0.00000483   -0.00000000
     atom   33 type  2   force =    -0.00000034    0.00000078   -0.00000000
     atom   34 type  2   force =     0.00000105    0.00000082   -0.00000000
     atom   35 type  2   force =    -0.00000035   -0.00000035    0.00000000
     atom   36 type  2   force =     0.00000105   -0.00000081   -0.00000000
     atom   37 type  2   force =    -0.00000033   -0.00000080    0.00000000
     atom   38 type  2   force =    -0.00000036    0.00000034   -0.00000000
     atom   39 type  2   force =     0.00000036   -0.00000034   -0.00000000
     atom   40 type  2   force =     0.00000033    0.00000080   -0.00000000
     atom   41 type  2   force =    -0.00000105    0.00000081    0.00000000
     atom   42 type  2   force =     0.00000035    0.00000035    0.00000000
     atom   43 type  2   force =    -0.00000105   -0.00000082   -0.00000000
     atom   44 type  2   force =     0.00000034   -0.00000078   -0.00000000
     atom   45 type  2   force =    -0.00000000   -0.00000078    0.00000000
     atom   46 type  2   force =     0.00000000    0.00000078   -0.00000000

     Total force =     0.011096     Total SCF correction =     0.000026
     Energy error            =      2.4E-04 Ry
     Gradient error          =      3.3E-03 Ry/Bohr

     number of scf cycles    =   7
     number of bfgs steps    =   5

     energy             old  =    -384.0417158083 Ry
     energy             new  =    -384.0419554194 Ry

     CASE: energy            _new < energy            _old

     new trust radius        =       0.0114727888 bohr
     new conv_thr            =       0.0000000002 Ry


ATOMIC_POSITIONS (angstrom)
C                2.3084405526        8.2086955619        4.9999999995
C                1.0674002561       10.3704822105        4.9999999999
C                3.4921430880        7.5210701545        4.9999999992
C                4.7494191414        8.2047875283        5.0000000001
C                2.2769708275        9.6372315995        4.9999999998
C                3.5111797839       10.3486777415        4.9999999998
C                1.0674006340       11.7514884899        4.9999999997
C                2.2769714295       12.4847385739        5.0000000002
C                5.9760633911        7.5235060291        4.9999999999
C                7.2027075287        8.2047880141        5.0000000004
C                4.7454039781        9.6371141920        5.0000000005
C                5.9760630682       10.3457874421        5.0000000009
C                3.5111802440       11.7732926804        5.0000000005
C                4.7454043224       12.4848568712        5.0000000009
C                2.3084406984       13.9132746984        5.0000000001
C                3.4921427583       14.6009005424        5.0000000000
C                8.4599835217        7.5210710876        5.0000000000
C                9.6436855816        8.2086969316        5.0000000001
C                7.2067219576        9.6371147688        5.0000000009
C                8.4409460360       10.3486789596        5.0000000005
C                5.9760632118       11.7761841979        5.0000000009
C                7.2067223019       12.4848574480        5.0000000005
C                4.7494187513       13.9171836159        5.0000000004
C                5.9760628889       14.5984656009        4.9999999999
C                9.6751548505        9.6372330661        5.0000000002
C               10.8847256460       10.3704831501        4.9999999997
C                8.4409464961       11.7732938985        4.9999999998
C                9.6751554525       12.4847400405        4.9999999998
C                7.2027071386       13.9171841017        5.0000000001
C                8.4599831920       14.6009014755        4.9999999992
C               10.8847260239       11.7514894295        4.9999999999
C                9.6436857274       13.9132760681        4.9999999995
H                1.3594560894        7.6691849401        4.9999999993
H                0.1236875227        9.8232371175        4.9999999995
H                3.4979079933        6.4294851664        5.0000000000
H                0.1236882089       12.2987342431        5.0000000001
H                1.3594568563       14.4527865583        4.9999999999
H                3.4979070928       15.6924857156        5.0000000000
H                8.4542191872        6.4294859144        5.0000000000
H               10.5926694237        7.6691850717        4.9999999999
H               11.8284380711        9.8232373969        5.0000000001
H                8.4542182867       15.6924864636        5.0000000000
H               11.8284387573       12.2987345225        4.9999999995
H               10.5926701906       14.4527866899        4.9999999993
H                5.9760635927        6.4313954262        4.9999999997
H                5.9760626873       15.6905745738        4.9999999997



     Writing config-only to output data dir /home/nihal/Desktop/OtptfGG/gqd_1.save/ :
     XML data file
     NEW-OLD atomic charge density approx. for the potential

     negative rho (up, down):  1.103E-02 0.000E+00

     total cpu time spent up to now is     1961.6 secs

     Self-consistent Calculation

     iteration #  1     ecut=    60.00 Ry     beta= 0.30
     Davidson diagonalization with overlap

---- Real-time Memory Report at c_bands before calling an iterative solver
          4547 MiB given to the printing process from OS
             0 MiB allocation reported by mallinfo(arena+hblkhd)
         18505 MiB available memory on the node where the printing process lives
------------------
     ethr =  1.00E-06,  avg # of iterations =  3.0

     Threshold (ethr) on eigenvalues was too large:
     Diagonalizing with lowered threshold

     Davidson diagonalization with overlap

---- Real-time Memory Report at c_bands before calling an iterative solver
          4547 MiB given to the printing process from OS
             0 MiB allocation reported by mallinfo(arena+hblkhd)
         18294 MiB available memory on the node where the printing process lives
------------------
     ethr =  4.63E-08,  avg # of iterations =  4.0

     negative rho (up, down):  1.103E-02 0.000E+00

     total cpu time spent up to now is     1999.3 secs

     total energy              =    -384.04208270 Ry
     estimated scf accuracy    <       0.00008057 Ry

     iteration #  2     ecut=    60.00 Ry     beta= 0.30
     Davidson diagonalization with overlap

---- Real-time Memory Report at c_bands before calling an iterative solver
          4547 MiB given to the printing process from OS
             0 MiB allocation reported by mallinfo(arena+hblkhd)
         17300 MiB available memory on the node where the printing process lives
------------------
     ethr =  5.67E-08,  avg # of iterations =  2.0

     negative rho (up, down):  1.103E-02 0.000E+00

     total cpu time spent up to now is     2017.8 secs

     total energy              =    -384.04208160 Ry
     estimated scf accuracy    <       0.00002500 Ry

     iteration #  3     ecut=    60.00 Ry     beta= 0.30
     Davidson diagonalization with overlap

---- Real-time Memory Report at c_bands before calling an iterative solver
          4547 MiB given to the printing process from OS
             0 MiB allocation reported by mallinfo(arena+hblkhd)
         17370 MiB available memory on the node where the printing process lives
------------------
     ethr =  1.76E-08,  avg # of iterations =  4.0

     negative rho (up, down):  1.103E-02 0.000E+00

     total cpu time spent up to now is     2038.9 secs

     total energy              =    -384.04208478 Ry
     estimated scf accuracy    <       0.00000579 Ry

     iteration #  4     ecut=    60.00 Ry     beta= 0.30
     Davidson diagonalization with overlap

---- Real-time Memory Report at c_bands before calling an iterative solver
          4547 MiB given to the printing process from OS
             0 MiB allocation reported by mallinfo(arena+hblkhd)
         17193 MiB available memory on the node where the printing process lives
------------------
     ethr =  4.08E-09,  avg # of iterations =  5.0

     negative rho (up, down):  1.103E-02 0.000E+00

     total cpu time spent up to now is     2058.8 secs

     total energy              =    -384.04208579 Ry
     estimated scf accuracy    <       0.00000166 Ry

     iteration #  5     ecut=    60.00 Ry     beta= 0.30
     Davidson diagonalization with overlap

---- Real-time Memory Report at c_bands before calling an iterative solver
          4547 MiB given to the printing process from OS
             0 MiB allocation reported by mallinfo(arena+hblkhd)
         17074 MiB available memory on the node where the printing process lives
------------------
     ethr =  1.17E-09,  avg # of iterations =  4.0

     negative rho (up, down):  1.103E-02 0.000E+00

     total cpu time spent up to now is     2078.9 secs

     total energy              =    -384.04208563 Ry
     estimated scf accuracy    <       0.00000083 Ry

     iteration #  6     ecut=    60.00 Ry     beta= 0.30
     Davidson diagonalization with overlap

---- Real-time Memory Report at c_bands before calling an iterative solver
          4547 MiB given to the printing process from OS
             0 MiB allocation reported by mallinfo(arena+hblkhd)
         16986 MiB available memory on the node where the printing process lives
------------------
     ethr =  5.85E-10,  avg # of iterations =  5.0

     negative rho (up, down):  1.103E-02 0.000E+00

     total cpu time spent up to now is     2100.6 secs

     total energy              =    -384.04208583 Ry
     estimated scf accuracy    <       0.00000012 Ry

     iteration #  7     ecut=    60.00 Ry     beta= 0.30
     Davidson diagonalization with overlap

---- Real-time Memory Report at c_bands before calling an iterative solver
          4547 MiB given to the printing process from OS
             0 MiB allocation reported by mallinfo(arena+hblkhd)
         16870 MiB available memory on the node where the printing process lives
------------------
     ethr =  8.41E-11,  avg # of iterations =  4.0

     negative rho (up, down):  1.103E-02 0.000E+00

     total cpu time spent up to now is     2119.8 secs

     total energy              =    -384.04208583 Ry
     estimated scf accuracy    <       0.00000003 Ry

     iteration #  8     ecut=    60.00 Ry     beta= 0.30
     Davidson diagonalization with overlap

---- Real-time Memory Report at c_bands before calling an iterative solver
          4547 MiB given to the printing process from OS
             0 MiB allocation reported by mallinfo(arena+hblkhd)
         17048 MiB available memory on the node where the printing process lives
------------------
     ethr =  1.80E-11,  avg # of iterations =  7.0

     negative rho (up, down):  1.103E-02 0.000E+00

     total cpu time spent up to now is     2143.2 secs

     total energy              =    -384.04208584 Ry
     estimated scf accuracy    <       0.00000002 Ry

     iteration #  9     ecut=    60.00 Ry     beta= 0.30
     Davidson diagonalization with overlap

---- Real-time Memory Report at c_bands before calling an iterative solver
          4547 MiB given to the printing process from OS
             0 MiB allocation reported by mallinfo(arena+hblkhd)
         16679 MiB available memory on the node where the printing process lives
------------------
     ethr =  1.08E-11,  avg # of iterations =  5.0

     negative rho (up, down):  1.103E-02 0.000E+00

     total cpu time spent up to now is     2164.5 secs

     total energy              =    -384.04208584 Ry
     estimated scf accuracy    <          5.5E-10 Ry

     iteration # 10     ecut=    60.00 Ry     beta= 0.30
     Davidson diagonalization with overlap

---- Real-time Memory Report at c_bands before calling an iterative solver
          4547 MiB given to the printing process from OS
             0 MiB allocation reported by mallinfo(arena+hblkhd)
         16591 MiB available memory on the node where the printing process lives
------------------
     ethr =  3.91E-13,  avg # of iterations =  4.0

     negative rho (up, down):  1.103E-02 0.000E+00

     total cpu time spent up to now is     2186.1 secs

     total energy              =    -384.04208585 Ry
     estimated scf accuracy    <          1.0E-09 Ry

     iteration # 11     ecut=    60.00 Ry     beta= 0.30
     Davidson diagonalization with overlap

---- Real-time Memory Report at c_bands before calling an iterative solver
          4547 MiB given to the printing process from OS
             0 MiB allocation reported by mallinfo(arena+hblkhd)
         16594 MiB available memory on the node where the printing process lives
------------------
     ethr =  3.91E-13,  avg # of iterations =  5.0

     negative rho (up, down):  1.103E-02 0.000E+00

     total cpu time spent up to now is     2207.0 secs

     End of self-consistent calculation

          k = 0.0000 0.0000 0.0000 (362139 PWs)   bands (ev):

   -22.5252 -21.9141 -21.6200 -20.9985 -20.8832 -20.2266 -19.9108 -19.7679
   -19.3465 -18.7162 -18.5230 -18.4846 -18.0646 -17.7612 -17.4618 -17.1016
   -15.7155 -15.6705 -15.6678 -15.5102 -15.4467 -15.0620 -14.0519 -13.9284
   -13.7776 -13.3006 -13.0178 -12.9627 -12.9280 -12.0746 -11.8551 -11.5981
   -11.5704 -11.5697 -11.3147 -10.9068 -10.5817 -10.5766 -10.4049 -10.3074
   -10.2915 -10.1313  -9.9685  -9.9448  -9.8785  -9.7282  -9.5724  -9.5000
    -9.2919  -9.2490  -8.9784  -8.8578  -8.7347  -8.6481  -8.6068  -8.3806
    -8.2084  -8.0954  -7.9391  -7.6472  -7.5407  -7.3047  -7.2335  -7.1294
    -6.4783  -6.3786  -6.2675  -5.9153  -5.6088  -5.1654  -4.5875

     occupation numbers 
     1.0000   1.0000   1.0000   1.0000   1.0000   1.0000   1.0000   1.0000
     1.0000   1.0000   1.0000   1.0000   1.0000   1.0000   1.0000   1.0000
     1.0000   1.0000   1.0000   1.0000   1.0000   1.0000   1.0000   1.0000
     1.0000   1.0000   1.0000   1.0000   1.0000   1.0000   1.0000   1.0000
     1.0000   1.0000   1.0000   1.0000   1.0000   1.0000   1.0000   1.0000
     1.0000   1.0000   1.0000   1.0000   1.0000   1.0000   1.0000   1.0000
     1.0000   1.0000   1.0000   1.0000   1.0000   1.0000   1.0000   1.0000
     1.0000   1.0000   1.0000   1.0000   1.0000   1.0000   1.0000   1.0000
     1.0000   1.0000   1.0000   1.0000   1.0000   1.0000   1.0000

     highest occupied level (ev):    -4.5875

!    total energy              =    -384.04208585 Ry
     estimated scf accuracy    <          5.8E-11 Ry

     The total energy is the sum of the following terms:
     one-electron contribution =   -3472.98619111 Ry
     hartree contribution      =    1751.81945730 Ry
     xc contribution           =    -125.77502420 Ry
     ewald contribution        =    1462.89967216 Ry

     convergence has been achieved in  11 iterations

     negative rho (up, down):  1.103E-02 0.000E+00

     Forces acting on atoms (cartesian axes, Ry/au):

     atom    1 type  1   force =    -0.00015202   -0.00116148   -0.00000000
     atom    2 type  1   force =    -0.00013234   -0.00092508   -0.00000000
     atom    3 type  1   force =     0.00016326   -0.00046612    0.00000000
     atom    4 type  1   force =     0.00129006   -0.00119133   -0.00000000
     atom    5 type  1   force =     0.00010778    0.00014117   -0.00000000
     atom    6 type  1   force =     0.00108387   -0.00183165    0.00000000
     atom    7 type  1   force =    -0.00013249    0.00092497    0.00000000
     atom    8 type  1   force =     0.00010782   -0.00014116   -0.00000000
     atom    9 type  1   force =     0.00000019    0.00088697    0.00000000
     atom   10 type  1   force =    -0.00129044   -0.00119115   -0.00000000
     atom   11 type  1   force =     0.00142978    0.00055279   -0.00000000
     atom   12 type  1   force =    -0.00000020   -0.00130051    0.00000000
     atom   13 type  1   force =     0.00108390    0.00183164   -0.00000000
     atom   14 type  1   force =     0.00142927   -0.00055281   -0.00000000
     atom   15 type  1   force =    -0.00015211    0.00116157   -0.00000000
     atom   16 type  1   force =     0.00016306    0.00046621    0.00000000
     atom   17 type  1   force =    -0.00016306   -0.00046621    0.00000000
     atom   18 type  1   force =     0.00015211   -0.00116157   -0.00000000
     atom   19 type  1   force =    -0.00142927    0.00055281   -0.00000000
     atom   20 type  1   force =    -0.00108390   -0.00183164   -0.00000000
     atom   21 type  1   force =     0.00000020    0.00130051    0.00000000
     atom   22 type  1   force =    -0.00142978   -0.00055279   -0.00000000
     atom   23 type  1   force =     0.00129044    0.00119115   -0.00000000
     atom   24 type  1   force =    -0.00000019   -0.00088697    0.00000000
     atom   25 type  1   force =    -0.00010782    0.00014116   -0.00000000
     atom   26 type  1   force =     0.00013249   -0.00092497    0.00000000
     atom   27 type  1   force =    -0.00108387    0.00183165    0.00000000
     atom   28 type  1   force =    -0.00010778   -0.00014117   -0.00000000
     atom   29 type  1   force =    -0.00129006    0.00119133   -0.00000000
     atom   30 type  1   force =    -0.00016326    0.00046612    0.00000000
     atom   31 type  1   force =     0.00013234    0.00092508   -0.00000000
     atom   32 type  1   force =     0.00015202    0.00116148   -0.00000000
     atom   33 type  2   force =     0.00014860   -0.00010178    0.00000000
     atom   34 type  2   force =    -0.00077617   -0.00017110    0.00000000
     atom   35 type  2   force =    -0.00067418    0.00025865   -0.00000000
     atom   36 type  2   force =    -0.00077616    0.00017108   -0.00000000
     atom   37 type  2   force =     0.00014868    0.00010148    0.00000000
     atom   38 type  2   force =    -0.00067431   -0.00025896   -0.00000000
     atom   39 type  2   force =     0.00067431    0.00025896   -0.00000000
     atom   40 type  2   force =    -0.00014868   -0.00010148    0.00000000
     atom   41 type  2   force =     0.00077616   -0.00017108   -0.00000000
     atom   42 type  2   force =     0.00067418   -0.00025865   -0.00000000
     atom   43 type  2   force =     0.00077617    0.00017110    0.00000000
     atom   44 type  2   force =    -0.00014860    0.00010178    0.00000000
     atom   45 type  2   force =     0.00000007   -0.00039883   -0.00000000
     atom   46 type  2   force =    -0.00000007    0.00039883   -0.00000000
     The non-local contrib.  to forces
     atom    1 type  1   force =    -0.00345330    0.03601635   -0.00000000
     atom    2 type  1   force =     0.02208202   -0.00834034   -0.00000000
     atom    3 type  1   force =     0.03591275    0.01731792    0.00000000
     atom    4 type  1   force =    -0.01263225    0.02678492   -0.00000000
     atom    5 type  1   force =     0.02280183    0.00227823   -0.00000000
     atom    6 type  1   force =     0.01193851    0.00419105    0.00000000
     atom    7 type  1   force =     0.02208226    0.00833886    0.00000000
     atom    8 type  1   force =     0.02280160   -0.00227985   -0.00000000
     atom    9 type  1   force =    -0.00000044    0.02275626    0.00000000
     atom   10 type  1   force =     0.01262988    0.02678602   -0.00000000
     atom   11 type  1   force =     0.00161522    0.00474707   -0.00000000
     atom   12 type  1   force =    -0.00000045    0.01026820    0.00000000
     atom   13 type  1   force =     0.01193904   -0.00419180   -0.00000000
     atom   14 type  1   force =     0.00161461   -0.00474773   -0.00000000
     atom   15 type  1   force =    -0.00345099   -0.03601876   -0.00000000
     atom   16 type  1   force =     0.03591399   -0.01732155    0.00000000
     atom   17 type  1   force =    -0.03591399    0.01732155    0.00000000
     atom   18 type  1   force =     0.00345099    0.03601876   -0.00000000
     atom   19 type  1   force =    -0.00161461    0.00474773   -0.00000000
     atom   20 type  1   force =    -0.01193904    0.00419180   -0.00000000
     atom   21 type  1   force =     0.00000045   -0.01026820    0.00000000
     atom   22 type  1   force =    -0.00161522   -0.00474707   -0.00000000
     atom   23 type  1   force =    -0.01262988   -0.02678602   -0.00000000
     atom   24 type  1   force =     0.00000044   -0.02275626    0.00000000
     atom   25 type  1   force =    -0.02280160    0.00227985   -0.00000000
     atom   26 type  1   force =    -0.02208226   -0.00833886    0.00000000
     atom   27 type  1   force =    -0.01193851   -0.00419105    0.00000000
     atom   28 type  1   force =    -0.02280183   -0.00227823   -0.00000000
     atom   29 type  1   force =     0.01263225   -0.02678492   -0.00000000
     atom   30 type  1   force =    -0.03591275   -0.01731792    0.00000000
     atom   31 type  1   force =    -0.02208202    0.00834034   -0.00000000
     atom   32 type  1   force =     0.00345330   -0.03601635   -0.00000000
     atom   33 type  2   force =     0.06688323    0.03852542    0.00000000
     atom   34 type  2   force =     0.06703480    0.03850541    0.00000000
     atom   35 type  2   force =    -0.00001785    0.07718362   -0.00000000
     atom   36 type  2   force =     0.06703485   -0.03850554   -0.00000000
     atom   37 type  2   force =     0.06688333   -0.03852570    0.00000000
     atom   38 type  2   force =    -0.00001750   -0.07718374    0.00000000
     atom   39 type  2   force =     0.00001750    0.07718374    0.00000000
     atom   40 type  2   force =    -0.06688333    0.03852570    0.00000000
     atom   41 type  2   force =    -0.06703485    0.03850554   -0.00000000
     atom   42 type  2   force =     0.00001785   -0.07718362   -0.00000000
     atom   43 type  2   force =    -0.06703480   -0.03850541    0.00000000
     atom   44 type  2   force =    -0.06688323   -0.03852542    0.00000000
     atom   45 type  2   force =    -0.00000015    0.07683019    0.00000000
     atom   46 type  2   force =     0.00000015   -0.07683019    0.00000000
     The ionic contribution  to forces
     atom    1 type  1   force =    -8.76761114   -7.82715853   -0.00000000
     atom    2 type  1   force =   -11.27805446   -2.98935300    0.00000000
     atom    3 type  1   force =    -3.75640698  -11.05159731   -0.00000001
     atom    4 type  1   force =    -1.93422674   -7.73390360    0.00000000
     atom    5 type  1   force =    -7.24539946   -3.88022838   -0.00000000
     atom    6 type  1   force =    -3.98140366   -1.64684958   -0.00000001
     atom    7 type  1   force =   -11.27867387    2.99967191   -0.00000000
     atom    8 type  1   force =    -7.24776327    3.88950477    0.00000000
     atom    9 type  1   force =     0.00555372  -11.46642573   -0.00000000
     atom   10 type  1   force =     1.94234343   -7.73821163    0.00000000
     atom   11 type  1   force =    -1.89833015   -3.35213717    0.00000000
     atom   12 type  1   force =     0.00096634   -1.54212544    0.00000001
     atom   13 type  1   force =    -3.98297480    1.65319517    0.00000000
     atom   14 type  1   force =    -1.90208405    3.35565389    0.00000001
     atom   15 type  1   force =    -8.77279583    7.83851419    0.00000000
     atom   16 type  1   force =    -3.76547999   11.06110918   -0.00000000
     atom   17 type  1   force =     3.76547979  -11.06110907   -0.00000000
     atom   18 type  1   force =     8.77279577   -7.83851409    0.00000000
     atom   19 type  1   force =     1.90208397   -3.35565415    0.00000001
     atom   20 type  1   force =     3.98297477   -1.65319527    0.00000000
     atom   21 type  1   force =    -0.00096634    1.54212523    0.00000001
     atom   22 type  1   force =     1.89833023    3.35213691    0.00000000
     atom   23 type  1   force =    -1.94234394    7.73821132    0.00000000
     atom   24 type  1   force =    -0.00555372   11.46642014   -0.00000000
     atom   25 type  1   force =     7.24776322   -3.88950487    0.00000000
     atom   26 type  1   force =    11.27867385   -2.99967194   -0.00000000
     atom   27 type  1   force =     3.98140369    1.64684948   -0.00000001
     atom   28 type  1   force =     7.24539950    3.88022828   -0.00000000
     atom   29 type  1   force =     1.93422725    7.73390329    0.00000000
     atom   30 type  1   force =     3.75640718   11.05159742   -0.00000001
     atom   31 type  1   force =    11.27805447    2.98935297    0.00000000
     atom   32 type  1   force =     8.76761120    7.82715863   -0.00000000
     atom   33 type  2   force =    -3.48504493   -2.63983633   -0.00000000
     atom   34 type  2   force =    -4.03334552   -1.59674200   -0.00000000
     atom   35 type  2   force =    -0.82478441   -4.30163148    0.00000000
     atom   36 type  2   force =    -4.03342699    1.59957324    0.00000000
     atom   37 type  2   force =    -3.48611071    2.64347964   -0.00000000
     atom   38 type  2   force =    -0.82809076    4.30466250   -0.00000000
     atom   39 type  2   force =     0.82809076   -4.30466244   -0.00000000
     atom   40 type  2   force =     3.48611070   -2.64347963   -0.00000000
     atom   41 type  2   force =     4.03342698   -1.59957324    0.00000000
     atom   42 type  2   force =     0.82478441    4.30163155    0.00000000
     atom   43 type  2   force =     4.03334552    1.59674200   -0.00000000
     atom   44 type  2   force =     3.48504493    2.63983634   -0.00000000
     atom   45 type  2   force =     0.00201616   -4.51811083   -0.00000000
     atom   46 type  2   force =    -0.00201616    4.51811768   -0.00000000
     The local contribution  to forces
     atom    1 type  1   force =     8.76936485    7.79033954    0.00000000
     atom    2 type  1   force =    11.25511713    2.99570291   -0.00000000
     atom    3 type  1   force =     3.72178385   11.03267359    0.00000001
     atom    4 type  1   force =     1.94766730    7.70616254   -0.00000000
     atom    5 type  1   force =     7.22283736    3.87784197    0.00000000
     atom    6 type  1   force =     3.97065775    1.64086755    0.00000001
     atom    7 type  1   force =    11.25573612   -3.00602043    0.00000000
     atom    8 type  1   force =     7.22520153   -3.88711675   -0.00000000
     atom    9 type  1   force =    -0.00555310   11.44358258    0.00000000
     atom   10 type  1   force =    -1.95578201    7.71046977   -0.00000000
     atom   11 type  1   force =     1.89807990    3.34783490   -0.00000000
     atom   12 type  1   force =    -0.00096603    1.53079706   -0.00000001
     atom   13 type  1   force =     3.97222832   -1.64721244   -0.00000000
     atom   14 type  1   force =     1.90183403   -3.35135095   -0.00000001
     atom   15 type  1   force =     8.77454714   -7.80169275   -0.00000000
     atom   16 type  1   force =     3.73085540  -11.04218187    0.00000000
     atom   17 type  1   force =    -3.73085520   11.04218172    0.00000000
     atom   18 type  1   force =    -8.77454708    7.80169265   -0.00000000
     atom   19 type  1   force =    -1.90183396    3.35135127   -0.00000001
     atom   20 type  1   force =    -3.97222827    1.64721256   -0.00000000
     atom   21 type  1   force =     0.00096603   -1.53079684   -0.00000001
     atom   22 type  1   force =    -1.89807998   -3.34783458   -0.00000000
     atom   23 type  1   force =     1.95578261   -7.71046945   -0.00000000
     atom   24 type  1   force =     0.00555310  -11.44357734    0.00000000
     atom   25 type  1   force =    -7.22520148    3.88711684   -0.00000000
     atom   26 type  1   force =   -11.25573610    3.00602045    0.00000000
     atom   27 type  1   force =    -3.97065780   -1.64086743    0.00000001
     atom   28 type  1   force =    -7.22283741   -3.87784187    0.00000000
     atom   29 type  1   force =    -1.94766789   -7.70616223   -0.00000000
     atom   30 type  1   force =    -3.72178405  -11.03267374    0.00000001
     atom   31 type  1   force =   -11.25511715   -2.99570288   -0.00000000
     atom   32 type  1   force =    -8.76936491   -7.79033964    0.00000000
     atom   33 type  2   force =     3.41830997    2.60120887    0.00000000
     atom   34 type  2   force =     3.96553402    1.55806510    0.00000000
     atom   35 type  2   force =     0.82412854    4.22470615   -0.00000000
     atom   36 type  2   force =     3.96561545   -1.56089622   -0.00000000
     atom   37 type  2   force =     3.41937571   -2.60485220    0.00000000
     atom   38 type  2   force =     0.82743441   -4.22773735    0.00000000
     atom   39 type  2   force =    -0.82743442    4.22773729    0.00000000
     atom   40 type  2   force =    -3.41937570    2.60485219    0.00000000
     atom   41 type  2   force =    -3.96561544    1.56089622   -0.00000000
     atom   42 type  2   force =    -0.82412853   -4.22470621   -0.00000000
     atom   43 type  2   force =    -3.96553403   -1.55806510    0.00000000
     atom   44 type  2   force =    -3.41830998   -2.60120888    0.00000000
     atom   45 type  2   force =    -0.00201594    4.44088388    0.00000000
     atom   46 type  2   force =     0.00201594   -4.44088830    0.00000000
     The core correction contribution to forces
     atom    1 type  1   force =     0.00154738   -0.00035925    0.00000000
     atom    2 type  1   force =     0.00072257    0.00106396   -0.00000000
     atom    3 type  1   force =    -0.00112328    0.00113872    0.00000000
     atom    4 type  1   force =     0.00048571   -0.00023729   -0.00000000
     atom    5 type  1   force =    -0.00012994    0.00024942    0.00000000
     atom    6 type  1   force =    -0.00010815   -0.00004016    0.00000000
     atom    7 type  1   force =     0.00072264   -0.00106395    0.00000000
     atom    8 type  1   force =    -0.00013004   -0.00024939   -0.00000000
     atom    9 type  1   force =    -0.00000001    0.00097374   -0.00000000
     atom   10 type  1   force =    -0.00048574   -0.00023738   -0.00000000
     atom   11 type  1   force =     0.00006437    0.00010556   -0.00000000
     atom   12 type  1   force =    -0.00000006   -0.00024301   -0.00000000
     atom   13 type  1   force =    -0.00010809    0.00004021   -0.00000000
     atom   14 type  1   force =     0.00006427   -0.00010554   -0.00000000
     atom   15 type  1   force =     0.00154733    0.00035923   -0.00000000
     atom   16 type  1   force =    -0.00112326   -0.00113865    0.00000000
     atom   17 type  1   force =     0.00112326    0.00113865    0.00000000
     atom   18 type  1   force =    -0.00154733   -0.00035923   -0.00000000
     atom   19 type  1   force =    -0.00006427    0.00010554   -0.00000000
     atom   20 type  1   force =     0.00010809   -0.00004021   -0.00000000
     atom   21 type  1   force =     0.00000006    0.00024301   -0.00000000
     atom   22 type  1   force =    -0.00006437   -0.00010556   -0.00000000
     atom   23 type  1   force =     0.00048574    0.00023738   -0.00000000
     atom   24 type  1   force =     0.00000001   -0.00097371   -0.00000000
     atom   25 type  1   force =     0.00013004    0.00024939   -0.00000000
     atom   26 type  1   force =    -0.00072264    0.00106395    0.00000000
     atom   27 type  1   force =     0.00010815    0.00004016    0.00000000
     atom   28 type  1   force =     0.00012994   -0.00024942    0.00000000
     atom   29 type  1   force =    -0.00048571    0.00023729   -0.00000000
     atom   30 type  1   force =     0.00112328   -0.00113872    0.00000000
     atom   31 type  1   force =    -0.00072257   -0.00106396   -0.00000000
     atom   32 type  1   force =    -0.00154738    0.00035925    0.00000000
     atom   33 type  2   force =     0.00000000    0.00000000    0.00000000
     atom   34 type  2   force =     0.00000000    0.00000000    0.00000000
     atom   35 type  2   force =     0.00000000    0.00000000    0.00000000
     atom   36 type  2   force =     0.00000000    0.00000000    0.00000000
     atom   37 type  2   force =     0.00000000    0.00000000    0.00000000
     atom   38 type  2   force =     0.00000000    0.00000000    0.00000000
     atom   39 type  2   force =     0.00000000    0.00000000    0.00000000
     atom   40 type  2   force =     0.00000000    0.00000000    0.00000000
     atom   41 type  2   force =     0.00000000    0.00000000    0.00000000
     atom   42 type  2   force =     0.00000000    0.00000000    0.00000000
     atom   43 type  2   force =     0.00000000    0.00000000    0.00000000
     atom   44 type  2   force =     0.00000000    0.00000000    0.00000000
     atom   45 type  2   force =     0.00000000    0.00000000    0.00000000
     atom   46 type  2   force =     0.00000000    0.00000000    0.00000000
     The Hubbard contrib.    to forces
     atom    1 type  1   force =     0.00000000    0.00000000    0.00000000
     atom    2 type  1   force =     0.00000000    0.00000000    0.00000000
     atom    3 type  1   force =     0.00000000    0.00000000    0.00000000
     atom    4 type  1   force =     0.00000000    0.00000000    0.00000000
     atom    5 type  1   force =     0.00000000    0.00000000    0.00000000
     atom    6 type  1   force =     0.00000000    0.00000000    0.00000000
     atom    7 type  1   force =     0.00000000    0.00000000    0.00000000
     atom    8 type  1   force =     0.00000000    0.00000000    0.00000000
     atom    9 type  1   force =     0.00000000    0.00000000    0.00000000
     atom   10 type  1   force =     0.00000000    0.00000000    0.00000000
     atom   11 type  1   force =     0.00000000    0.00000000    0.00000000
     atom   12 type  1   force =     0.00000000    0.00000000    0.00000000
     atom   13 type  1   force =     0.00000000    0.00000000    0.00000000
     atom   14 type  1   force =     0.00000000    0.00000000    0.00000000
     atom   15 type  1   force =     0.00000000    0.00000000    0.00000000
     atom   16 type  1   force =     0.00000000    0.00000000    0.00000000
     atom   17 type  1   force =     0.00000000    0.00000000    0.00000000
     atom   18 type  1   force =     0.00000000    0.00000000    0.00000000
     atom   19 type  1   force =     0.00000000    0.00000000    0.00000000
     atom   20 type  1   force =     0.00000000    0.00000000    0.00000000
     atom   21 type  1   force =     0.00000000    0.00000000    0.00000000
     atom   22 type  1   force =     0.00000000    0.00000000    0.00000000
     atom   23 type  1   force =     0.00000000    0.00000000    0.00000000
     atom   24 type  1   force =     0.00000000    0.00000000    0.00000000
     atom   25 type  1   force =     0.00000000    0.00000000    0.00000000
     atom   26 type  1   force =     0.00000000    0.00000000    0.00000000
     atom   27 type  1   force =     0.00000000    0.00000000    0.00000000
     atom   28 type  1   force =     0.00000000    0.00000000    0.00000000
     atom   29 type  1   force =     0.00000000    0.00000000    0.00000000
     atom   30 type  1   force =     0.00000000    0.00000000    0.00000000
     atom   31 type  1   force =     0.00000000    0.00000000    0.00000000
     atom   32 type  1   force =     0.00000000    0.00000000    0.00000000
     atom   33 type  2   force =     0.00000000    0.00000000    0.00000000
     atom   34 type  2   force =     0.00000000    0.00000000    0.00000000
     atom   35 type  2   force =     0.00000000    0.00000000    0.00000000
     atom   36 type  2   force =     0.00000000    0.00000000    0.00000000
     atom   37 type  2   force =     0.00000000    0.00000000    0.00000000
     atom   38 type  2   force =     0.00000000    0.00000000    0.00000000
     atom   39 type  2   force =     0.00000000    0.00000000    0.00000000
     atom   40 type  2   force =     0.00000000    0.00000000    0.00000000
     atom   41 type  2   force =     0.00000000    0.00000000    0.00000000
     atom   42 type  2   force =     0.00000000    0.00000000    0.00000000
     atom   43 type  2   force =     0.00000000    0.00000000    0.00000000
     atom   44 type  2   force =     0.00000000    0.00000000    0.00000000
     atom   45 type  2   force =     0.00000000    0.00000000    0.00000000
     atom   46 type  2   force =     0.00000000    0.00000000    0.00000000
     The SCF correction term to forces
     atom    1 type  1   force =     0.00000019    0.00000041    0.00000000
     atom    2 type  1   force =     0.00000039    0.00000140    0.00000000
     atom    3 type  1   force =    -0.00000309    0.00000093    0.00000000
     atom    4 type  1   force =    -0.00000400    0.00000209    0.00000000
     atom    5 type  1   force =    -0.00000201   -0.00000007    0.00000000
     atom    6 type  1   force =    -0.00000060   -0.00000050   -0.00000000
     atom    7 type  1   force =     0.00000037   -0.00000142    0.00000000
     atom    8 type  1   force =    -0.00000199    0.00000005    0.00000000
     atom    9 type  1   force =     0.00000001   -0.00000004   -0.00000000
     atom   10 type  1   force =     0.00000405    0.00000208    0.00000000
     atom   11 type  1   force =     0.00000045    0.00000246   -0.00000000
     atom   12 type  1   force =     0.00000001    0.00000268    0.00000000
     atom   13 type  1   force =    -0.00000056    0.00000051   -0.00000000
     atom   14 type  1   force =     0.00000041   -0.00000245    0.00000000
     atom   15 type  1   force =     0.00000024   -0.00000034    0.00000000
     atom   16 type  1   force =    -0.00000308   -0.00000092   -0.00000000
     atom   17 type  1   force =     0.00000308    0.00000092    0.00000000
     atom   18 type  1   force =    -0.00000024    0.00000034   -0.00000000
     atom   19 type  1   force =    -0.00000041    0.00000245   -0.00000000
     atom   20 type  1   force =     0.00000056   -0.00000051   -0.00000000
     atom   21 type  1   force =    -0.00000001   -0.00000268    0.00000000
     atom   22 type  1   force =    -0.00000045   -0.00000246   -0.00000000
     atom   23 type  1   force =    -0.00000405   -0.00000208   -0.00000000
     atom   24 type  1   force =    -0.00000001    0.00000004    0.00000000
     atom   25 type  1   force =     0.00000199   -0.00000005    0.00000000
     atom   26 type  1   force =    -0.00000037    0.00000142    0.00000000
     atom   27 type  1   force =     0.00000060    0.00000050   -0.00000000
     atom   28 type  1   force =     0.00000201    0.00000007    0.00000000
     atom   29 type  1   force =     0.00000400   -0.00000209   -0.00000000
     atom   30 type  1   force =     0.00000309   -0.00000093   -0.00000000
     atom   31 type  1   force =    -0.00000039   -0.00000140   -0.00000000
     atom   32 type  1   force =    -0.00000019   -0.00000041    0.00000000
     atom   33 type  2   force =     0.00000033    0.00000026   -0.00000000
     atom   34 type  2   force =     0.00000052    0.00000039    0.00000000
     atom   35 type  2   force =    -0.00000046    0.00000037   -0.00000000
     atom   36 type  2   force =     0.00000053   -0.00000041   -0.00000000
     atom   37 type  2   force =     0.00000034   -0.00000026    0.00000000
     atom   38 type  2   force =    -0.00000046   -0.00000037    0.00000000
     atom   39 type  2   force =     0.00000046    0.00000037    0.00000000
     atom   40 type  2   force =    -0.00000034    0.00000026   -0.00000000
     atom   41 type  2   force =    -0.00000053    0.00000041    0.00000000
     atom   42 type  2   force =     0.00000046   -0.00000037   -0.00000000
     atom   43 type  2   force =    -0.00000052   -0.00000039    0.00000000
     atom   44 type  2   force =    -0.00000033   -0.00000026   -0.00000000
     atom   45 type  2   force =     0.00000001   -0.00000085   -0.00000000
     atom   46 type  2   force =    -0.00000001    0.00000085    0.00000000

     Total force =     0.007743     Total SCF correction =     0.000014
     Energy error            =      1.3E-04 Ry
     Gradient error          =      1.8E-03 Ry/Bohr

     number of scf cycles    =   8
     number of bfgs steps    =   6

     energy             old  =    -384.0419554194 Ry
     energy             new  =    -384.0420858514 Ry

     CASE: energy            _new < energy            _old

     new trust radius        =       0.0031067390 bohr
     new conv_thr            =       0.0000000001 Ry


ATOMIC_POSITIONS (angstrom)
C                2.3086357507        8.2081851239        4.9999999995
C                1.0678713291       10.3700494945        5.0000000000
C                3.4923657601        7.5211205476        4.9999999993
C                4.7499445185        8.2045138799        5.0000000001
C                2.2774135288        9.6372977328        4.9999999999
C                3.5120334257       10.3478851603        5.0000000000
C                1.0678716790       11.7519210830        4.9999999998
C                2.2774141735       12.4846723830        5.0000000001
C                5.9760634616        7.5238370134        4.9999999999
C                7.2021820359        8.2045144986        5.0000000004
C                4.7463108719        9.6373203697        5.0000000005
C                5.9760629869       10.3456673901        5.0000000009
C                3.5120339006       11.7740851857        5.0000000004
C                4.7463110101       12.4846506325        5.0000000009
C                2.3086359107       13.9137850799        5.0000000001
C                3.4923653063       14.6008500518        5.0000000001
C                8.4597609737        7.5211215782        5.0000000001
C                9.6434903693        8.2081865501        5.0000000001
C                7.2058152699        9.6373210075        5.0000000009
C                8.4400923794       10.3478864543        5.0000000004
C                5.9760632931       11.7763042499        5.0000000009
C                7.2058154081       12.4846512703        5.0000000005
C                4.7499442441       13.9174571314        5.0000000004
C                5.9760628184       14.5981346166        4.9999999999
C                9.6747121065        9.6372992570        5.0000000001
C               10.8842546010       10.3700505570        4.9999999998
C                8.4400928543       11.7740864797        5.0000000000
C                9.6747127512       12.4846739072        4.9999999999
C                7.2021817615       13.9174577501        5.0000000001
C                8.4597605199       14.6008510824        4.9999999993
C               10.8842549509       11.7519221455        5.0000000000
C                9.6434905293       13.9137865061        4.9999999995
H                1.3600488941        7.6683806148        4.9999999993
H                0.1234171315        9.8239975865        4.9999999994
H                3.4962642838        6.4295086705        4.9999999999
H                0.1234178588       12.2979737490        5.0000000001
H                1.3600497335       14.4535906836        4.9999999999
H                3.4962632483       15.6924620075        4.9999999999
H                8.4558630317        6.4295096225        4.9999999999
H               10.5920765465        7.6683809464        4.9999999999
H               11.8287084212        9.8239978910        5.0000000001
H                8.4558619962       15.6924629595        4.9999999999
H               11.8287091485       12.2979740535        4.9999999994
H               10.5920773859       14.4535910152        4.9999999993
H                5.9760636701        6.4313670600        4.9999999996
H                5.9760626099       15.6906029400        4.9999999996



     Writing config-only to output data dir /home/nihal/Desktop/OtptfGG/gqd_1.save/ :
     XML data file
     NEW-OLD atomic charge density approx. for the potential

     negative rho (up, down):  1.103E-02 0.000E+00

     total cpu time spent up to now is     2223.2 secs

     Self-consistent Calculation

     iteration #  1     ecut=    60.00 Ry     beta= 0.30
     Davidson diagonalization with overlap

---- Real-time Memory Report at c_bands before calling an iterative solver
          4547 MiB given to the printing process from OS
             0 MiB allocation reported by mallinfo(arena+hblkhd)
         18505 MiB available memory on the node where the printing process lives
------------------
     ethr =  1.00E-06,  avg # of iterations =  2.0

     Threshold (ethr) on eigenvalues was too large:
     Diagonalizing with lowered threshold

     Davidson diagonalization with overlap

---- Real-time Memory Report at c_bands before calling an iterative solver
          4547 MiB given to the printing process from OS
             0 MiB allocation reported by mallinfo(arena+hblkhd)
         18306 MiB available memory on the node where the printing process lives
------------------
     ethr =  4.73E-09,  avg # of iterations =  6.0

     negative rho (up, down):  1.103E-02 0.000E+00

     total cpu time spent up to now is     2264.0 secs

     total energy              =    -384.04211168 Ry
     estimated scf accuracy    <       0.00001289 Ry

     iteration #  2     ecut=    60.00 Ry     beta= 0.30
     Davidson diagonalization with overlap

---- Real-time Memory Report at c_bands before calling an iterative solver
          4547 MiB given to the printing process from OS
             0 MiB allocation reported by mallinfo(arena+hblkhd)
         17321 MiB available memory on the node where the printing process lives
------------------
     ethr =  9.08E-09,  avg # of iterations =  2.0

     negative rho (up, down):  1.103E-02 0.000E+00

     total cpu time spent up to now is     2282.8 secs

     total energy              =    -384.04211169 Ry
     estimated scf accuracy    <       0.00000328 Ry

     iteration #  3     ecut=    60.00 Ry     beta= 0.30
     Davidson diagonalization with overlap

---- Real-time Memory Report at c_bands before calling an iterative solver
          4547 MiB given to the printing process from OS
             0 MiB allocation reported by mallinfo(arena+hblkhd)
         17252 MiB available memory on the node where the printing process lives
------------------
     ethr =  2.31E-09,  avg # of iterations =  4.0

     negative rho (up, down):  1.103E-02 0.000E+00

     total cpu time spent up to now is     2303.5 secs

     total energy              =    -384.04211179 Ry
     estimated scf accuracy    <       0.00000090 Ry

     iteration #  4     ecut=    60.00 Ry     beta= 0.30
     Davidson diagonalization with overlap

---- Real-time Memory Report at c_bands before calling an iterative solver
          4547 MiB given to the printing process from OS
             0 MiB allocation reported by mallinfo(arena+hblkhd)
         17121 MiB available memory on the node where the printing process lives
------------------
     ethr =  6.35E-10,  avg # of iterations =  5.0

     negative rho (up, down):  1.103E-02 0.000E+00

     total cpu time spent up to now is     2326.0 secs

     total energy              =    -384.04211189 Ry
     estimated scf accuracy    <       0.00000093 Ry

     iteration #  5     ecut=    60.00 Ry     beta= 0.30
     Davidson diagonalization with overlap

---- Real-time Memory Report at c_bands before calling an iterative solver
          4547 MiB given to the printing process from OS
             0 MiB allocation reported by mallinfo(arena+hblkhd)
         17063 MiB available memory on the node where the printing process lives
------------------
     ethr =  6.35E-10,  avg # of iterations =  5.0

     negative rho (up, down):  1.103E-02 0.000E+00

     total cpu time spent up to now is     2345.9 secs

     total energy              =    -384.04211199 Ry
     estimated scf accuracy    <       0.00000005 Ry

     iteration #  6     ecut=    60.00 Ry     beta= 0.30
     Davidson diagonalization with overlap

---- Real-time Memory Report at c_bands before calling an iterative solver
          4547 MiB given to the printing process from OS
             0 MiB allocation reported by mallinfo(arena+hblkhd)
         16992 MiB available memory on the node where the printing process lives
------------------
     ethr =  3.72E-11,  avg # of iterations =  6.0

     negative rho (up, down):  1.103E-02 0.000E+00

     total cpu time spent up to now is     2368.8 secs

     total energy              =    -384.04211200 Ry
     estimated scf accuracy    <       0.00000005 Ry

     iteration #  7     ecut=    60.00 Ry     beta= 0.30
     Davidson diagonalization with overlap

---- Real-time Memory Report at c_bands before calling an iterative solver
          4547 MiB given to the printing process from OS
             0 MiB allocation reported by mallinfo(arena+hblkhd)
         16854 MiB available memory on the node where the printing process lives
------------------
     ethr =  3.21E-11,  avg # of iterations =  5.0

     negative rho (up, down):  1.103E-02 0.000E+00

     total cpu time spent up to now is     2389.9 secs

     total energy              =    -384.04211202 Ry
     estimated scf accuracy    <          5.9E-09 Ry

     iteration #  8     ecut=    60.00 Ry     beta= 0.30
     Davidson diagonalization with overlap

---- Real-time Memory Report at c_bands before calling an iterative solver
          4547 MiB given to the printing process from OS
             0 MiB allocation reported by mallinfo(arena+hblkhd)
         16849 MiB available memory on the node where the printing process lives
------------------
     ethr =  4.18E-12,  avg # of iterations =  4.0

     negative rho (up, down):  1.103E-02 0.000E+00

     total cpu time spent up to now is     2409.1 secs

     total energy              =    -384.04211201 Ry
     estimated scf accuracy    <          1.6E-09 Ry

     iteration #  9     ecut=    60.00 Ry     beta= 0.30
     Davidson diagonalization with overlap

---- Real-time Memory Report at c_bands before calling an iterative solver
          4547 MiB given to the printing process from OS
             0 MiB allocation reported by mallinfo(arena+hblkhd)
         16701 MiB available memory on the node where the printing process lives
------------------
     ethr =  1.10E-12,  avg # of iterations =  5.0

     negative rho (up, down):  1.103E-02 0.000E+00

     total cpu time spent up to now is     2431.0 secs

     total energy              =    -384.04211201 Ry
     estimated scf accuracy    <          3.7E-10 Ry

     iteration # 10     ecut=    60.00 Ry     beta= 0.30
     Davidson diagonalization with overlap

---- Real-time Memory Report at c_bands before calling an iterative solver
          4547 MiB given to the printing process from OS
             0 MiB allocation reported by mallinfo(arena+hblkhd)
         16594 MiB available memory on the node where the printing process lives
------------------
     ethr =  2.63E-13,  avg # of iterations =  5.0

     negative rho (up, down):  1.103E-02 0.000E+00

     total cpu time spent up to now is     2451.9 secs

     End of self-consistent calculation

          k = 0.0000 0.0000 0.0000 (362139 PWs)   bands (ev):

   -22.5272 -21.9112 -21.6225 -20.9982 -20.8822 -20.2286 -19.9089 -19.7692
   -19.3452 -18.7160 -18.5277 -18.4832 -18.0629 -17.7636 -17.4589 -17.1044
   -15.7125 -15.6718 -15.6699 -15.5077 -15.4491 -15.0592 -14.0505 -13.9285
   -13.7765 -13.2997 -13.0188 -12.9631 -12.9285 -12.0739 -11.8597 -11.5956
   -11.5711 -11.5676 -11.3173 -10.9027 -10.5824 -10.5782 -10.4051 -10.3076
   -10.2895 -10.1301  -9.9729  -9.9448  -9.8759  -9.7247  -9.5746  -9.5022
    -9.2933  -9.2472  -8.9711  -8.8573  -8.7340  -8.6487  -8.6045  -8.3842
    -8.2155  -8.0977  -7.9312  -7.6454  -7.5411  -7.3130  -7.2269  -7.1279
    -6.4837  -6.3771  -6.2646  -5.9146  -5.6115  -5.1618  -4.5904

     occupation numbers 
     1.0000   1.0000   1.0000   1.0000   1.0000   1.0000   1.0000   1.0000
     1.0000   1.0000   1.0000   1.0000   1.0000   1.0000   1.0000   1.0000
     1.0000   1.0000   1.0000   1.0000   1.0000   1.0000   1.0000   1.0000
     1.0000   1.0000   1.0000   1.0000   1.0000   1.0000   1.0000   1.0000
     1.0000   1.0000   1.0000   1.0000   1.0000   1.0000   1.0000   1.0000
     1.0000   1.0000   1.0000   1.0000   1.0000   1.0000   1.0000   1.0000
     1.0000   1.0000   1.0000   1.0000   1.0000   1.0000   1.0000   1.0000
     1.0000   1.0000   1.0000   1.0000   1.0000   1.0000   1.0000   1.0000
     1.0000   1.0000   1.0000   1.0000   1.0000   1.0000   1.0000

     highest occupied level (ev):    -4.5904

!    total energy              =    -384.04211202 Ry
     estimated scf accuracy    <          7.1E-11 Ry

     The total energy is the sum of the following terms:
     one-electron contribution =   -3473.14555730 Ry
     hartree contribution      =    1751.90043327 Ry
     xc contribution           =    -125.77649702 Ry
     ewald contribution        =    1462.97950903 Ry

     convergence has been achieved in  10 iterations

     negative rho (up, down):  1.103E-02 0.000E+00

     Forces acting on atoms (cartesian axes, Ry/au):

     atom    1 type  1   force =     0.00003089   -0.00000672   -0.00000000
     atom    2 type  1   force =    -0.00031275    0.00090198   -0.00000000
     atom    3 type  1   force =     0.00021950   -0.00082810    0.00000000
     atom    4 type  1   force =     0.00039855   -0.00027922   -0.00000000
     atom    5 type  1   force =     0.00016398   -0.00102723   -0.00000000
     atom    6 type  1   force =     0.00046109    0.00092689    0.00000000
     atom    7 type  1   force =    -0.00031269   -0.00090194    0.00000000
     atom    8 type  1   force =     0.00016390    0.00102710   -0.00000000
     atom    9 type  1   force =    -0.00000005   -0.00091615    0.00000000
     atom   10 type  1   force =    -0.00039844   -0.00027911   -0.00000000
     atom   11 type  1   force =     0.00016069   -0.00096380   -0.00000000
     atom   12 type  1   force =     0.00000017   -0.00013315   -0.00000000
     atom   13 type  1   force =     0.00046096   -0.00092699   -0.00000000
     atom   14 type  1   force =     0.00016081    0.00096369   -0.00000000
     atom   15 type  1   force =     0.00003081    0.00000664   -0.00000000
     atom   16 type  1   force =     0.00021970    0.00082814    0.00000000
     atom   17 type  1   force =    -0.00021970   -0.00082814    0.00000000
     atom   18 type  1   force =    -0.00003081   -0.00000664   -0.00000000
     atom   19 type  1   force =    -0.00016081   -0.00096369   -0.00000000
     atom   20 type  1   force =    -0.00046096    0.00092699   -0.00000000
     atom   21 type  1   force =    -0.00000017    0.00013315   -0.00000000
     atom   22 type  1   force =    -0.00016069    0.00096380   -0.00000000
     atom   23 type  1   force =     0.00039844    0.00027911   -0.00000000
     atom   24 type  1   force =     0.00000005    0.00091615    0.00000000
     atom   25 type  1   force =    -0.00016390   -0.00102710   -0.00000000
     atom   26 type  1   force =     0.00031269    0.00090194    0.00000000
     atom   27 type  1   force =    -0.00046109   -0.00092689    0.00000000
     atom   28 type  1   force =    -0.00016398    0.00102723   -0.00000000
     atom   29 type  1   force =    -0.00039855    0.00027922   -0.00000000
     atom   30 type  1   force =    -0.00021950    0.00082810    0.00000000
     atom   31 type  1   force =     0.00031275   -0.00090198   -0.00000000
     atom   32 type  1   force =    -0.00003089    0.00000672   -0.00000000
     atom   33 type  2   force =    -0.00008368   -0.00013216    0.00000000
     atom   34 type  2   force =    -0.00055196   -0.00036675    0.00000000
     atom   35 type  2   force =    -0.00024554    0.00025266   -0.00000000
     atom   36 type  2   force =    -0.00055192    0.00036666   -0.00000000
     atom   37 type  2   force =    -0.00008376    0.00013197   -0.00000000
     atom   38 type  2   force =    -0.00024567   -0.00025285   -0.00000000
     atom   39 type  2   force =     0.00024567    0.00025285   -0.00000000
     atom   40 type  2   force =     0.00008376   -0.00013197   -0.00000000
     atom   41 type  2   force =     0.00055192   -0.00036666   -0.00000000
     atom   42 type  2   force =     0.00024554   -0.00025266   -0.00000000
     atom   43 type  2   force =     0.00055196    0.00036675    0.00000000
     atom   44 type  2   force =     0.00008368    0.00013216    0.00000000
     atom   45 type  2   force =     0.00000009    0.00000536   -0.00000000
     atom   46 type  2   force =    -0.00000009   -0.00000536   -0.00000000
     The non-local contrib.  to forces
     atom    1 type  1   force =    -0.00344999    0.03684508   -0.00000000
     atom    2 type  1   force =     0.02187812   -0.00713263   -0.00000000
     atom    3 type  1   force =     0.03600060    0.01696985    0.00000000
     atom    4 type  1   force =    -0.01349713    0.02738319   -0.00000000
     atom    5 type  1   force =     0.02282941    0.00145458   -0.00000000
     atom    6 type  1   force =     0.01126467    0.00619413    0.00000000
     atom    7 type  1   force =     0.02187861    0.00713130    0.00000000
     atom    8 type  1   force =     0.02282913   -0.00145627   -0.00000000
     atom    9 type  1   force =    -0.00000060    0.02143225    0.00000000
     atom   10 type  1   force =     0.01349514    0.02738419   -0.00000000
     atom   11 type  1   force =     0.00051285    0.00362191   -0.00000000
     atom   12 type  1   force =    -0.00000021    0.01104298    0.00000000
     atom   13 type  1   force =     0.01126514   -0.00619491   -0.00000000
     atom   14 type  1   force =     0.00051270   -0.00362259   -0.00000000
     atom   15 type  1   force =    -0.00344769   -0.03684761   -0.00000000
     atom   16 type  1   force =     0.03600206   -0.01697344    0.00000000
     atom   17 type  1   force =    -0.03600206    0.01697344    0.00000000
     atom   18 type  1   force =     0.00344769    0.03684761   -0.00000000
     atom   19 type  1   force =    -0.00051270    0.00362259   -0.00000000
     atom   20 type  1   force =    -0.01126514    0.00619491   -0.00000000
     atom   21 type  1   force =     0.00000021   -0.01104298    0.00000000
     atom   22 type  1   force =    -0.00051285   -0.00362191   -0.00000000
     atom   23 type  1   force =    -0.01349514   -0.02738419   -0.00000000
     atom   24 type  1   force =     0.00000060   -0.02143225    0.00000000
     atom   25 type  1   force =    -0.02282913    0.00145627   -0.00000000
     atom   26 type  1   force =    -0.02187861   -0.00713130    0.00000000
     atom   27 type  1   force =    -0.01126467   -0.00619413    0.00000000
     atom   28 type  1   force =    -0.02282941   -0.00145458   -0.00000000
     atom   29 type  1   force =     0.01349713   -0.02738319   -0.00000000
     atom   30 type  1   force =    -0.03600060   -0.01696985    0.00000000
     atom   31 type  1   force =    -0.02187812    0.00713263   -0.00000000
     atom   32 type  1   force =     0.00344999   -0.03684508   -0.00000000
     atom   33 type  2   force =     0.06690457    0.03857760    0.00000000
     atom   34 type  2   force =     0.06709072    0.03839577    0.00000000
     atom   35 type  2   force =     0.00014752    0.07717617   -0.00000000
     atom   36 type  2   force =     0.06709078   -0.03839592   -0.00000000
     atom   37 type  2   force =     0.06690470   -0.03857789    0.00000000
     atom   38 type  2   force =     0.00014786   -0.07717632    0.00000000
     atom   39 type  2   force =    -0.00014786    0.07717632    0.00000000
     atom   40 type  2   force =    -0.06690470    0.03857789    0.00000000
     atom   41 type  2   force =    -0.06709078    0.03839592   -0.00000000
     atom   42 type  2   force =    -0.00014752   -0.07717617   -0.00000000
     atom   43 type  2   force =    -0.06709072   -0.03839577    0.00000000
     atom   44 type  2   force =    -0.06690457   -0.03857760    0.00000000
     atom   45 type  2   force =    -0.00000015    0.07675243    0.00000000
     atom   46 type  2   force =     0.00000015   -0.07675243    0.00000000
     The ionic contribution  to forces
     atom    1 type  1   force =    -8.77083170   -7.82147166   -0.00000000
     atom    2 type  1   force =   -11.27771232   -2.98485239    0.00000000
     atom    3 type  1   force =    -3.75196737  -11.05014522   -0.00000001
     atom    4 type  1   force =    -1.94280219   -7.73288100    0.00000000
     atom    5 type  1   force =    -7.24474351   -3.88031625   -0.00000000
     atom    6 type  1   force =    -3.98757551   -1.63815941   -0.00000000
     atom    7 type  1   force =   -11.27833208    2.99517192   -0.00000000
     atom    8 type  1   force =    -7.24710856    3.88959199    0.00000000
     atom    9 type  1   force =     0.00555295  -11.47408343   -0.00000000
     atom   10 type  1   force =     1.95092198   -7.73718789    0.00000000
     atom   11 type  1   force =    -1.90436287   -3.35812314    0.00000000
     atom   12 type  1   force =     0.00096759   -1.53460077    0.00000001
     atom   13 type  1   force =    -3.98914954    1.64450257    0.00000000
     atom   14 type  1   force =    -1.90811503    3.36163648    0.00000001
     atom   15 type  1   force =    -8.77601882    7.83282800   -0.00000000
     atom   16 type  1   force =    -3.76103937   11.05965641   -0.00000000
     atom   17 type  1   force =     3.76103917  -11.05965629   -0.00000000
     atom   18 type  1   force =     8.77601875   -7.83282791   -0.00000000
     atom   19 type  1   force =     1.90811494   -3.36163674    0.00000001
     atom   20 type  1   force =     3.98914951   -1.64450268    0.00000000
     atom   21 type  1   force =    -0.00096759    1.53460056    0.00000001
     atom   22 type  1   force =     1.90436295    3.35812288    0.00000000
     atom   23 type  1   force =    -1.95092249    7.73718758    0.00000000
     atom   24 type  1   force =    -0.00555295   11.47407784   -0.00000000
     atom   25 type  1   force =     7.24710852   -3.88959209    0.00000000
     atom   26 type  1   force =    11.27833206   -2.99517194   -0.00000000
     atom   27 type  1   force =     3.98757554    1.63815931   -0.00000000
     atom   28 type  1   force =     7.24474356    3.88031615   -0.00000000
     atom   29 type  1   force =     1.94280270    7.73288069    0.00000000
     atom   30 type  1   force =     3.75196757   11.05014534   -0.00000001
     atom   31 type  1   force =    11.27771234    2.98485237    0.00000000
     atom   32 type  1   force =     8.77083176    7.82147176   -0.00000000
     atom   33 type  2   force =    -3.48539625   -2.64038133   -0.00000000
     atom   34 type  2   force =    -4.03373533   -1.59443285   -0.00000000
     atom   35 type  2   force =    -0.82752721   -4.30145207    0.00000000
     atom   36 type  2   force =    -4.03381664    1.59726429    0.00000000
     atom   37 type  2   force =    -3.48646344    2.64402540   -0.00000000
     atom   38 type  2   force =    -0.83083289    4.30448548   -0.00000000
     atom   39 type  2   force =     0.83083289   -4.30448542   -0.00000000
     atom   40 type  2   force =     3.48646343   -2.64402539   -0.00000000
     atom   41 type  2   force =     4.03381663   -1.59726429    0.00000000
     atom   42 type  2   force =     0.82752721    4.30145213    0.00000000
     atom   43 type  2   force =     4.03373533    1.59443285   -0.00000000
     atom   44 type  2   force =     3.48539626    2.64038134   -0.00000000
     atom   45 type  2   force =     0.00201639   -4.51759407   -0.00000000
     atom   46 type  2   force =    -0.00201639    4.51760092   -0.00000000
     The local contribution  to forces
     atom    1 type  1   force =     8.77276283    7.78499278    0.00000000
     atom    2 type  1   force =    11.25479407    2.99184206   -0.00000000
     atom    3 type  1   force =     3.71732434   11.03120562    0.00000001
     atom    4 type  1   force =     1.95619538    7.70546947   -0.00000000
     atom    5 type  1   force =     7.22221354    3.87757104    0.00000000
     atom    6 type  1   force =     3.97687434    1.63296763    0.00000000
     atom    7 type  1   force =    11.25541334   -3.00216022    0.00000000
     atom    8 type  1   force =     7.22457889   -3.88684527   -0.00000000
     atom    9 type  1   force =    -0.00555239   11.45074012    0.00000000
     atom   10 type  1   force =    -1.96431303    7.70977557   -0.00000000
     atom   11 type  1   force =     1.90393937    3.35340763   -0.00000000
     atom   12 type  1   force =    -0.00096714    1.52369141   -0.00000001
     atom   13 type  1   force =     3.97844774   -1.63931016   -0.00000000
     atom   14 type  1   force =     1.90769191   -3.35692034   -0.00000001
     atom   15 type  1   force =     8.77794765   -7.79634664    0.00000000
     atom   16 type  1   force =     3.72639511  -11.04071327    0.00000000
     atom   17 type  1   force =    -3.72639490   11.04071312    0.00000000
     atom   18 type  1   force =    -8.77794759    7.79634654    0.00000000
     atom   19 type  1   force =    -1.90769183    3.35692066   -0.00000001
     atom   20 type  1   force =    -3.97844769    1.63931029   -0.00000000
     atom   21 type  1   force =     0.00096714   -1.52369118   -0.00000001
     atom   22 type  1   force =    -1.90393944   -3.35340731   -0.00000000
     atom   23 type  1   force =     1.96431362   -7.70977526   -0.00000000
     atom   24 type  1   force =     0.00555239  -11.45073488    0.00000000
     atom   25 type  1   force =    -7.22457884    3.88684536   -0.00000000
     atom   26 type  1   force =   -11.25541332    3.00216025    0.00000000
     atom   27 type  1   force =    -3.97687439   -1.63296751    0.00000000
     atom   28 type  1   force =    -7.22221359   -3.87757094    0.00000000
     atom   29 type  1   force =    -1.95619597   -7.70546915   -0.00000000
     atom   30 type  1   force =    -3.71732455  -11.03120577    0.00000001
     atom   31 type  1   force =   -11.25479409   -2.99184203   -0.00000000
     atom   32 type  1   force =    -8.77276289   -7.78499288    0.00000000
     atom   33 type  2   force =     3.41840802    2.60167098    0.00000000
     atom   34 type  2   force =     3.96609209    1.55566989    0.00000000
     atom   35 type  2   force =     0.82713442    4.22452896   -0.00000000
     atom   36 type  2   force =     3.96617339   -1.55850127   -0.00000000
     atom   37 type  2   force =     3.41947499   -2.60531495    0.00000000
     atom   38 type  2   force =     0.83043963   -4.22756241    0.00000000
     atom   39 type  2   force =    -0.83043964    4.22756235    0.00000000
     atom   40 type  2   force =    -3.41947499    2.60531493    0.00000000
     atom   41 type  2   force =    -3.96617339    1.55850128   -0.00000000
     atom   42 type  2   force =    -0.82713441   -4.22452902   -0.00000000
     atom   43 type  2   force =    -3.96609210   -1.55566989    0.00000000
     atom   44 type  2   force =    -3.41840803   -2.60167099    0.00000000
     atom   45 type  2   force =    -0.00201616    4.44084903    0.00000000
     atom   46 type  2   force =     0.00201615   -4.44085345    0.00000000
     The core correction contribution to forces
     atom    1 type  1   force =     0.00155222   -0.00037614    0.00000000
     atom    2 type  1   force =     0.00072680    0.00104412   -0.00000000
     atom    3 type  1   force =    -0.00113552    0.00114030    0.00000000
     atom    4 type  1   force =     0.00050557   -0.00025106    0.00000000
     atom    5 type  1   force =    -0.00013329    0.00026217   -0.00000000
     atom    6 type  1   force =    -0.00009808   -0.00007609    0.00000000
     atom    7 type  1   force =     0.00072685   -0.00104413    0.00000000
     atom    8 type  1   force =    -0.00013339   -0.00026214   -0.00000000
     atom    9 type  1   force =    -0.00000000    0.00099715   -0.00000000
     atom   10 type  1   force =    -0.00050560   -0.00025115   -0.00000000
     atom   11 type  1   force =     0.00007611    0.00012863   -0.00000000
     atom   12 type  1   force =    -0.00000006   -0.00026678   -0.00000000
     atom   13 type  1   force =    -0.00009802    0.00007615   -0.00000000
     atom   14 type  1   force =     0.00007601   -0.00012862   -0.00000000
     atom   15 type  1   force =     0.00155216    0.00037612   -0.00000000
     atom   16 type  1   force =    -0.00113551   -0.00114023   -0.00000000
     atom   17 type  1   force =     0.00113551    0.00114023   -0.00000000
     atom   18 type  1   force =    -0.00155216   -0.00037612   -0.00000000
     atom   19 type  1   force =    -0.00007601    0.00012862   -0.00000000
     atom   20 type  1   force =     0.00009802   -0.00007615   -0.00000000
     atom   21 type  1   force =     0.00000006    0.00026678   -0.00000000
     atom   22 type  1   force =    -0.00007611   -0.00012863   -0.00000000
     atom   23 type  1   force =     0.00050560    0.00025116   -0.00000000
     atom   24 type  1   force =     0.00000000   -0.00099712   -0.00000000
     atom   25 type  1   force =     0.00013339    0.00026214   -0.00000000
     atom   26 type  1   force =    -0.00072685    0.00104413    0.00000000
     atom   27 type  1   force =     0.00009808    0.00007609    0.00000000
     atom   28 type  1   force =     0.00013329   -0.00026217   -0.00000000
     atom   29 type  1   force =    -0.00050557    0.00025106    0.00000000
     atom   30 type  1   force =     0.00113552   -0.00114030    0.00000000
     atom   31 type  1   force =    -0.00072680   -0.00104412   -0.00000000
     atom   32 type  1   force =    -0.00155222    0.00037614    0.00000000
     atom   33 type  2   force =     0.00000000    0.00000000    0.00000000
     atom   34 type  2   force =     0.00000000    0.00000000    0.00000000
     atom   35 type  2   force =     0.00000000    0.00000000    0.00000000
     atom   36 type  2   force =     0.00000000    0.00000000    0.00000000
     atom   37 type  2   force =     0.00000000    0.00000000    0.00000000
     atom   38 type  2   force =     0.00000000    0.00000000    0.00000000
     atom   39 type  2   force =     0.00000000    0.00000000    0.00000000
     atom   40 type  2   force =     0.00000000    0.00000000    0.00000000
     atom   41 type  2   force =     0.00000000    0.00000000    0.00000000
     atom   42 type  2   force =     0.00000000    0.00000000    0.00000000
     atom   43 type  2   force =     0.00000000    0.00000000    0.00000000
     atom   44 type  2   force =     0.00000000    0.00000000    0.00000000
     atom   45 type  2   force =     0.00000000    0.00000000    0.00000000
     atom   46 type  2   force =     0.00000000    0.00000000    0.00000000
     The Hubbard contrib.    to forces
     atom    1 type  1   force =     0.00000000    0.00000000    0.00000000
     atom    2 type  1   force =     0.00000000    0.00000000    0.00000000
     atom    3 type  1   force =     0.00000000    0.00000000    0.00000000
     atom    4 type  1   force =     0.00000000    0.00000000    0.00000000
     atom    5 type  1   force =     0.00000000    0.00000000    0.00000000
     atom    6 type  1   force =     0.00000000    0.00000000    0.00000000
     atom    7 type  1   force =     0.00000000    0.00000000    0.00000000
     atom    8 type  1   force =     0.00000000    0.00000000    0.00000000
     atom    9 type  1   force =     0.00000000    0.00000000    0.00000000
     atom   10 type  1   force =     0.00000000    0.00000000    0.00000000
     atom   11 type  1   force =     0.00000000    0.00000000    0.00000000
     atom   12 type  1   force =     0.00000000    0.00000000    0.00000000
     atom   13 type  1   force =     0.00000000    0.00000000    0.00000000
     atom   14 type  1   force =     0.00000000    0.00000000    0.00000000
     atom   15 type  1   force =     0.00000000    0.00000000    0.00000000
     atom   16 type  1   force =     0.00000000    0.00000000    0.00000000
     atom   17 type  1   force =     0.00000000    0.00000000    0.00000000
     atom   18 type  1   force =     0.00000000    0.00000000    0.00000000
     atom   19 type  1   force =     0.00000000    0.00000000    0.00000000
     atom   20 type  1   force =     0.00000000    0.00000000    0.00000000
     atom   21 type  1   force =     0.00000000    0.00000000    0.00000000
     atom   22 type  1   force =     0.00000000    0.00000000    0.00000000
     atom   23 type  1   force =     0.00000000    0.00000000    0.00000000
     atom   24 type  1   force =     0.00000000    0.00000000    0.00000000
     atom   25 type  1   force =     0.00000000    0.00000000    0.00000000
     atom   26 type  1   force =     0.00000000    0.00000000    0.00000000
     atom   27 type  1   force =     0.00000000    0.00000000    0.00000000
     atom   28 type  1   force =     0.00000000    0.00000000    0.00000000
     atom   29 type  1   force =     0.00000000    0.00000000    0.00000000
     atom   30 type  1   force =     0.00000000    0.00000000    0.00000000
     atom   31 type  1   force =     0.00000000    0.00000000    0.00000000
     atom   32 type  1   force =     0.00000000    0.00000000    0.00000000
     atom   33 type  2   force =     0.00000000    0.00000000    0.00000000
     atom   34 type  2   force =     0.00000000    0.00000000    0.00000000
     atom   35 type  2   force =     0.00000000    0.00000000    0.00000000
     atom   36 type  2   force =     0.00000000    0.00000000    0.00000000
     atom   37 type  2   force =     0.00000000    0.00000000    0.00000000
     atom   38 type  2   force =     0.00000000    0.00000000    0.00000000
     atom   39 type  2   force =     0.00000000    0.00000000    0.00000000
     atom   40 type  2   force =     0.00000000    0.00000000    0.00000000
     atom   41 type  2   force =     0.00000000    0.00000000    0.00000000
     atom   42 type  2   force =     0.00000000    0.00000000    0.00000000
     atom   43 type  2   force =     0.00000000    0.00000000    0.00000000
     atom   44 type  2   force =     0.00000000    0.00000000    0.00000000
     atom   45 type  2   force =     0.00000000    0.00000000    0.00000000
     atom   46 type  2   force =     0.00000000    0.00000000    0.00000000
     The SCF correction term to forces
     atom    1 type  1   force =    -0.00000247    0.00000323   -0.00000000
     atom    2 type  1   force =     0.00000058    0.00000082   -0.00000000
     atom    3 type  1   force =    -0.00000256    0.00000134   -0.00000000
     atom    4 type  1   force =    -0.00000311    0.00000019    0.00000000
     atom    5 type  1   force =    -0.00000217    0.00000124   -0.00000000
     atom    6 type  1   force =    -0.00000434    0.00000064   -0.00000000
     atom    7 type  1   force =     0.00000059   -0.00000080   -0.00000000
     atom    8 type  1   force =    -0.00000217   -0.00000122    0.00000000
     atom    9 type  1   force =    -0.00000001   -0.00000240   -0.00000000
     atom   10 type  1   force =     0.00000311    0.00000017   -0.00000000
     atom   11 type  1   force =    -0.00000477    0.00000120    0.00000000
     atom   12 type  1   force =    -0.00000001    0.00000002    0.00000000
     atom   13 type  1   force =    -0.00000434   -0.00000063    0.00000000
     atom   14 type  1   force =    -0.00000478   -0.00000121    0.00000000
     atom   15 type  1   force =    -0.00000249   -0.00000323    0.00000000
     atom   16 type  1   force =    -0.00000259   -0.00000134   -0.00000000
     atom   17 type  1   force =     0.00000259    0.00000134   -0.00000000
     atom   18 type  1   force =     0.00000249    0.00000323    0.00000000
     atom   19 type  1   force =     0.00000478    0.00000121    0.00000000
     atom   20 type  1   force =     0.00000434    0.00000063    0.00000000
     atom   21 type  1   force =     0.00000001   -0.00000002    0.00000000
     atom   22 type  1   force =     0.00000477   -0.00000120    0.00000000
     atom   23 type  1   force =    -0.00000311   -0.00000017   -0.00000000
     atom   24 type  1   force =     0.00000001    0.00000240   -0.00000000
     atom   25 type  1   force =     0.00000217    0.00000122    0.00000000
     atom   26 type  1   force =    -0.00000059    0.00000080   -0.00000000
     atom   27 type  1   force =     0.00000434   -0.00000064   -0.00000000
     atom   28 type  1   force =     0.00000217   -0.00000124   -0.00000000
     atom   29 type  1   force =     0.00000311   -0.00000019    0.00000000
     atom   30 type  1   force =     0.00000256   -0.00000134   -0.00000000
     atom   31 type  1   force =    -0.00000058   -0.00000082   -0.00000000
     atom   32 type  1   force =     0.00000247   -0.00000323   -0.00000000
     atom   33 type  2   force =    -0.00000002    0.00000059   -0.00000000
     atom   34 type  2   force =     0.00000054    0.00000044   -0.00000000
     atom   35 type  2   force =    -0.00000027   -0.00000040   -0.00000000
     atom   36 type  2   force =     0.00000054   -0.00000043   -0.00000000
     atom   37 type  2   force =    -0.00000002   -0.00000060    0.00000000
     atom   38 type  2   force =    -0.00000027    0.00000040   -0.00000000
     atom   39 type  2   force =     0.00000027   -0.00000040   -0.00000000
     atom   40 type  2   force =     0.00000002    0.00000060    0.00000000
     atom   41 type  2   force =    -0.00000054    0.00000043   -0.00000000
     atom   42 type  2   force =     0.00000027    0.00000040   -0.00000000
     atom   43 type  2   force =    -0.00000054   -0.00000044   -0.00000000
     atom   44 type  2   force =     0.00000002   -0.00000059   -0.00000000
     atom   45 type  2   force =    -0.00000000   -0.00000082   -0.00000000
     atom   46 type  2   force =     0.00000000    0.00000082   -0.00000000

     Total force =     0.004902     Total SCF correction =     0.000019
     Energy error            =      2.6E-05 Ry
     Gradient error          =      1.0E-03 Ry/Bohr

     number of scf cycles    =   9
     number of bfgs steps    =   7

     energy             old  =    -384.0420858514 Ry
     energy             new  =    -384.0421120178 Ry

     CASE: energy            _new < energy            _old

     new trust radius        =       0.0010724100 bohr
     new conv_thr            =            1.0E-10 Ry


ATOMIC_POSITIONS (angstrom)
C                2.3086646838        8.2079525698        4.9999999995
C                1.0677457717       10.3702777688        4.9999999999
C                3.4925361138        7.5206692838        4.9999999994
C                4.7503729418        8.2042401105        5.0000000000
C                2.2776159633        9.6368973114        4.9999999998
C                3.5124446442       10.3480112298        5.0000000001
C                1.0677461228       11.7516928067        4.9999999999
C                2.2776165747       12.4850727400        5.0000000001
C                5.9760634665        7.5234856677        5.0000000000
C                7.2017536083        8.2042408241        5.0000000004
C                4.7466938467        9.6369015848        5.0000000004
C                5.9760630347       10.3454699721        5.0000000009
C                3.5124450570       11.7739590638        5.0000000004
C                4.7466939514       12.4850693526        5.0000000008
C                2.3086648032       13.9140176030        5.0000000001
C                3.4925357167       14.6013013279        5.0000000001
C                8.4595905633        7.5206703021        5.0000000001
C                9.6434614768        8.2079540270        5.0000000001
C                7.2054323286        9.6369022874        5.0000000008
C                8.4396812230       10.3480125762        5.0000000004
C                5.9760632453       11.7765016679        5.0000000009
C                7.2054324333       12.4850700552        5.0000000004
C                4.7503726717       13.9177308059        5.0000000004
C                5.9760628135       14.5984859623        5.0000000000
C                9.6745097053        9.6368989000        5.0000000001
C               10.8843801572       10.3702788333        4.9999999999
C                8.4396816358       11.7739604102        5.0000000001
C                9.6745103167       12.4850743286        4.9999999998
C                7.2017533382       13.9177315195        5.0000000000
C                8.4595901662       14.6013023462        4.9999999994
C               10.8843805083       11.7516938712        4.9999999999
C                9.6434615962       13.9140190602        4.9999999995
H                1.3599987207        7.6682264325        4.9999999993
H                0.1229354909        9.8237914141        4.9999999995
H                3.4959466768        6.4296166760        4.9999999999
H                0.1229362445       12.2981798681        5.0000000000
H                1.3599995325       14.4537447102        4.9999999999
H                3.4959455503       15.6923538531        4.9999999999
H                8.4561807297        6.4296177769        4.9999999999
H               10.5921267475        7.6682269198        4.9999999999
H               11.8291900355        9.8237917719        5.0000000000
H                8.4561796032       15.6923549540        4.9999999999
H               11.8291907891       12.2981802259        4.9999999995
H               10.5921275593       14.4537451975        4.9999999993
H                5.9760637304        6.4312711526        4.9999999996
H                5.9760625496       15.6906988474        4.9999999996



     Writing config-only to output data dir /home/nihal/Desktop/OtptfGG/gqd_1.save/ :
     XML data file
     NEW-OLD atomic charge density approx. for the potential

     negative rho (up, down):  1.103E-02 0.000E+00

     total cpu time spent up to now is     2468.0 secs

     Self-consistent Calculation

     iteration #  1     ecut=    60.00 Ry     beta= 0.30
     Davidson diagonalization with overlap

---- Real-time Memory Report at c_bands before calling an iterative solver
          4547 MiB given to the printing process from OS
             0 MiB allocation reported by mallinfo(arena+hblkhd)
         18514 MiB available memory on the node where the printing process lives
------------------
     ethr =  1.00E-06,  avg # of iterations =  2.0

     Threshold (ethr) on eigenvalues was too large:
     Diagonalizing with lowered threshold

     Davidson diagonalization with overlap

---- Real-time Memory Report at c_bands before calling an iterative solver
          4547 MiB given to the printing process from OS
             0 MiB allocation reported by mallinfo(arena+hblkhd)
         18103 MiB available memory on the node where the printing process lives
------------------
     ethr =  1.69E-09,  avg # of iterations =  6.0

     negative rho (up, down):  1.103E-02 0.000E+00

     total cpu time spent up to now is     2509.0 secs

     total energy              =    -384.04212218 Ry
     estimated scf accuracy    <       0.00000525 Ry

     iteration #  2     ecut=    60.00 Ry     beta= 0.30
     Davidson diagonalization with overlap

---- Real-time Memory Report at c_bands before calling an iterative solver
          4547 MiB given to the printing process from OS
             0 MiB allocation reported by mallinfo(arena+hblkhd)
         17306 MiB available memory on the node where the printing process lives
------------------
     ethr =  3.70E-09,  avg # of iterations =  4.0

     negative rho (up, down):  1.103E-02 0.000E+00

     total cpu time spent up to now is     2528.3 secs

     total energy              =    -384.04212227 Ry
     estimated scf accuracy    <       0.00000118 Ry

     iteration #  3     ecut=    60.00 Ry     beta= 0.30
     Davidson diagonalization with overlap

---- Real-time Memory Report at c_bands before calling an iterative solver
          4547 MiB given to the printing process from OS
             0 MiB allocation reported by mallinfo(arena+hblkhd)
         17212 MiB available memory on the node where the printing process lives
------------------
     ethr =  8.32E-10,  avg # of iterations =  2.0

     negative rho (up, down):  1.103E-02 0.000E+00

     total cpu time spent up to now is     2547.7 secs

     total energy              =    -384.04212229 Ry
     estimated scf accuracy    <       0.00000027 Ry

     iteration #  4     ecut=    60.00 Ry     beta= 0.30
     Davidson diagonalization with overlap

---- Real-time Memory Report at c_bands before calling an iterative solver
          4547 MiB given to the printing process from OS
             0 MiB allocation reported by mallinfo(arena+hblkhd)
         17122 MiB available memory on the node where the printing process lives
------------------
     ethr =  1.87E-10,  avg # of iterations =  4.0

     negative rho (up, down):  1.103E-02 0.000E+00

     total cpu time spent up to now is     2567.6 secs

     total energy              =    -384.04212232 Ry
     estimated scf accuracy    <       0.00000002 Ry

     iteration #  5     ecut=    60.00 Ry     beta= 0.30
     Davidson diagonalization with overlap

---- Real-time Memory Report at c_bands before calling an iterative solver
          4547 MiB given to the printing process from OS
             0 MiB allocation reported by mallinfo(arena+hblkhd)
         17047 MiB available memory on the node where the printing process lives
------------------
     ethr =  1.30E-11,  avg # of iterations =  4.0

     negative rho (up, down):  1.103E-02 0.000E+00

     total cpu time spent up to now is     2589.4 secs

     total energy              =    -384.04212232 Ry
     estimated scf accuracy    <          4.8E-09 Ry

     iteration #  6     ecut=    60.00 Ry     beta= 0.30
     Davidson diagonalization with overlap

---- Real-time Memory Report at c_bands before calling an iterative solver
          4547 MiB given to the printing process from OS
             0 MiB allocation reported by mallinfo(arena+hblkhd)
         16939 MiB available memory on the node where the printing process lives
------------------
     ethr =  3.37E-12,  avg # of iterations =  5.0

     negative rho (up, down):  1.103E-02 0.000E+00

     total cpu time spent up to now is     2612.1 secs

     total energy              =    -384.04212232 Ry
     estimated scf accuracy    <          4.8E-09 Ry

     iteration #  7     ecut=    60.00 Ry     beta= 0.30
     Davidson diagonalization with overlap

---- Real-time Memory Report at c_bands before calling an iterative solver
          4547 MiB given to the printing process from OS
             0 MiB allocation reported by mallinfo(arena+hblkhd)
         16870 MiB available memory on the node where the printing process lives
------------------
     ethr =  3.35E-12,  avg # of iterations =  5.0

     negative rho (up, down):  1.103E-02 0.000E+00

     total cpu time spent up to now is     2632.0 secs

     total energy              =    -384.04212231 Ry
     estimated scf accuracy    <          3.7E-10 Ry

     iteration #  8     ecut=    60.00 Ry     beta= 0.30
     Davidson diagonalization with overlap

---- Real-time Memory Report at c_bands before calling an iterative solver
          4547 MiB given to the printing process from OS
             0 MiB allocation reported by mallinfo(arena+hblkhd)
         16772 MiB available memory on the node where the printing process lives
------------------
     ethr =  2.58E-13,  avg # of iterations =  5.0

     negative rho (up, down):  1.103E-02 0.000E+00

     total cpu time spent up to now is     2653.8 secs

     End of self-consistent calculation

          k = 0.0000 0.0000 0.0000 (362139 PWs)   bands (ev):

   -22.5268 -21.9085 -21.6235 -20.9965 -20.8802 -20.2292 -19.9070 -19.7691
   -19.3446 -18.7163 -18.5290 -18.4814 -18.0622 -17.7628 -17.4596 -17.1032
   -15.7137 -15.6706 -15.6686 -15.5091 -15.4466 -15.0608 -14.0486 -13.9265
   -13.7739 -13.3029 -13.0192 -12.9650 -12.9279 -12.0724 -11.8572 -11.5939
   -11.5711 -11.5680 -11.3190 -10.9046 -10.5823 -10.5779 -10.4064 -10.3067
   -10.2883 -10.1289  -9.9721  -9.9470  -9.8739  -9.7244  -9.5753  -9.5017
    -9.2934  -9.2475  -8.9727  -8.8563  -8.7325  -8.6484  -8.6069  -8.3822
    -8.2113  -8.0980  -7.9350  -7.6446  -7.5410  -7.3090  -7.2304  -7.1274
    -6.4841  -6.3762  -6.2655  -5.9147  -5.6100  -5.1634  -4.5897

     occupation numbers 
     1.0000   1.0000   1.0000   1.0000   1.0000   1.0000   1.0000   1.0000
     1.0000   1.0000   1.0000   1.0000   1.0000   1.0000   1.0000   1.0000
     1.0000   1.0000   1.0000   1.0000   1.0000   1.0000   1.0000   1.0000
     1.0000   1.0000   1.0000   1.0000   1.0000   1.0000   1.0000   1.0000
     1.0000   1.0000   1.0000   1.0000   1.0000   1.0000   1.0000   1.0000
     1.0000   1.0000   1.0000   1.0000   1.0000   1.0000   1.0000   1.0000
     1.0000   1.0000   1.0000   1.0000   1.0000   1.0000   1.0000   1.0000
     1.0000   1.0000   1.0000   1.0000   1.0000   1.0000   1.0000   1.0000
     1.0000   1.0000   1.0000   1.0000   1.0000   1.0000   1.0000

     highest occupied level (ev):    -4.5897

!    total energy              =    -384.04212231 Ry
     estimated scf accuracy    <          7.0E-11 Ry

     The total energy is the sum of the following terms:
     one-electron contribution =   -3472.97068274 Ry
     hartree contribution      =    1751.81287622 Ry
     xc contribution           =    -125.77402256 Ry
     ewald contribution        =    1462.88970676 Ry

     convergence has been achieved in   8 iterations

     negative rho (up, down):  1.103E-02 0.000E+00

     Forces acting on atoms (cartesian axes, Ry/au):

     atom    1 type  1   force =     0.00038209   -0.00019972    0.00000000
     atom    2 type  1   force =    -0.00023552   -0.00052438   -0.00000000
     atom    3 type  1   force =     0.00010527    0.00028250    0.00000000
     atom    4 type  1   force =    -0.00057189   -0.00051467   -0.00000000
     atom    5 type  1   force =    -0.00002811    0.00003869   -0.00000000
     atom    6 type  1   force =     0.00005039   -0.00005602    0.00000000
     atom    7 type  1   force =    -0.00023548    0.00052435    0.00000000
     atom    8 type  1   force =    -0.00002814   -0.00003870    0.00000000
     atom    9 type  1   force =     0.00000001   -0.00092689    0.00000000
     atom   10 type  1   force =     0.00057196   -0.00051468   -0.00000000
     atom   11 type  1   force =    -0.00032851   -0.00039432   -0.00000000
     atom   12 type  1   force =     0.00000005    0.00022249   -0.00000000
     atom   13 type  1   force =     0.00005037    0.00005593    0.00000000
     atom   14 type  1   force =    -0.00032846    0.00039426   -0.00000000
     atom   15 type  1   force =     0.00038225    0.00019958   -0.00000000
     atom   16 type  1   force =     0.00010535   -0.00028276    0.00000000
     atom   17 type  1   force =    -0.00010535    0.00028276    0.00000000
     atom   18 type  1   force =    -0.00038225   -0.00019958   -0.00000000
     atom   19 type  1   force =     0.00032846   -0.00039426   -0.00000000
     atom   20 type  1   force =    -0.00005037   -0.00005593    0.00000000
     atom   21 type  1   force =    -0.00000005   -0.00022249   -0.00000000
     atom   22 type  1   force =     0.00032851    0.00039432   -0.00000000
     atom   23 type  1   force =    -0.00057196    0.00051468   -0.00000000
     atom   24 type  1   force =    -0.00000001    0.00092689    0.00000000
     atom   25 type  1   force =     0.00002814    0.00003870    0.00000000
     atom   26 type  1   force =     0.00023548   -0.00052435    0.00000000
     atom   27 type  1   force =    -0.00005039    0.00005602    0.00000000
     atom   28 type  1   force =     0.00002811   -0.00003869   -0.00000000
     atom   29 type  1   force =     0.00057189    0.00051467   -0.00000000
     atom   30 type  1   force =    -0.00010527   -0.00028250    0.00000000
     atom   31 type  1   force =     0.00023552    0.00052438   -0.00000000
     atom   32 type  1   force =    -0.00038209    0.00019972    0.00000000
     atom   33 type  2   force =    -0.00004231   -0.00012264    0.00000000
     atom   34 type  2   force =     0.00000667   -0.00001254    0.00000000
     atom   35 type  2   force =    -0.00014615   -0.00044945   -0.00000000
     atom   36 type  2   force =     0.00000667    0.00001248   -0.00000000
     atom   37 type  2   force =    -0.00004246    0.00012253   -0.00000000
     atom   38 type  2   force =    -0.00014625    0.00044949   -0.00000000
     atom   39 type  2   force =     0.00014625   -0.00044949   -0.00000000
     atom   40 type  2   force =     0.00004246   -0.00012253   -0.00000000
     atom   41 type  2   force =    -0.00000667   -0.00001248   -0.00000000
     atom   42 type  2   force =     0.00014615    0.00044945   -0.00000000
     atom   43 type  2   force =    -0.00000667    0.00001254    0.00000000
     atom   44 type  2   force =     0.00004231    0.00012264    0.00000000
     atom   45 type  2   force =     0.00000008   -0.00030462   -0.00000000
     atom   46 type  2   force =    -0.00000008    0.00030462   -0.00000000
     The non-local contrib.  to forces
     atom    1 type  1   force =    -0.00328768    0.03683319   -0.00000000
     atom    2 type  1   force =     0.02185020   -0.00818987   -0.00000000
     atom    3 type  1   force =     0.03580610    0.01784257    0.00000000
     atom    4 type  1   force =    -0.01429717    0.02732921   -0.00000000
     atom    5 type  1   force =     0.02256202    0.00232841   -0.00000000
     atom    6 type  1   force =     0.01093870    0.00557550    0.00000000
     atom    7 type  1   force =     0.02185070    0.00818847    0.00000000
     atom    8 type  1   force =     0.02256179   -0.00233004   -0.00000000
     atom    9 type  1   force =    -0.00000058    0.02147856    0.00000000
     atom   10 type  1   force =     0.01429513    0.02733009    0.00000000
     atom   11 type  1   force =     0.00008670    0.00399623   -0.00000000
     atom   12 type  1   force =    -0.00000029    0.01151904    0.00000000
     atom   13 type  1   force =     0.01093928   -0.00557628    0.00000000
     atom   14 type  1   force =     0.00008656   -0.00399686   -0.00000000
     atom   15 type  1   force =    -0.00328524   -0.03683583   -0.00000000
     atom   16 type  1   force =     0.03580745   -0.01784640    0.00000000
     atom   17 type  1   force =    -0.03580745    0.01784640    0.00000000
     atom   18 type  1   force =     0.00328524    0.03683583   -0.00000000
     atom   19 type  1   force =    -0.00008656    0.00399686   -0.00000000
     atom   20 type  1   force =    -0.01093928    0.00557628    0.00000000
     atom   21 type  1   force =     0.00000029   -0.01151904    0.00000000
     atom   22 type  1   force =    -0.00008670   -0.00399623   -0.00000000
     atom   23 type  1   force =    -0.01429513   -0.02733009    0.00000000
     atom   24 type  1   force =     0.00000058   -0.02147856    0.00000000
     atom   25 type  1   force =    -0.02256179    0.00233004   -0.00000000
     atom   26 type  1   force =    -0.02185070   -0.00818847    0.00000000
     atom   27 type  1   force =    -0.01093870   -0.00557550    0.00000000
     atom   28 type  1   force =    -0.02256202   -0.00232841   -0.00000000
     atom   29 type  1   force =     0.01429717   -0.02732921   -0.00000000
     atom   30 type  1   force =    -0.03580610   -0.01784257    0.00000000
     atom   31 type  1   force =    -0.02185020    0.00818987   -0.00000000
     atom   32 type  1   force =     0.00328768   -0.03683319   -0.00000000
     atom   33 type  2   force =     0.06690437    0.03856651    0.00000000
     atom   34 type  2   force =     0.06698530    0.03835541    0.00000000
     atom   35 type  2   force =     0.00019022    0.07729551   -0.00000000
     atom   36 type  2   force =     0.06698537   -0.03835556   -0.00000000
     atom   37 type  2   force =     0.06690452   -0.03856680    0.00000000
     atom   38 type  2   force =     0.00019057   -0.07729569    0.00000000
     atom   39 type  2   force =    -0.00019057    0.07729569    0.00000000
     atom   40 type  2   force =    -0.06690452    0.03856680    0.00000000
     atom   41 type  2   force =    -0.06698537    0.03835556   -0.00000000
     atom   42 type  2   force =    -0.00019022   -0.07729551   -0.00000000
     atom   43 type  2   force =    -0.06698530   -0.03835541    0.00000000
     atom   44 type  2   force =    -0.06690437   -0.03856651    0.00000000
     atom   45 type  2   force =    -0.00000015    0.07680685    0.00000000
     atom   46 type  2   force =     0.00000015   -0.07680685    0.00000000
     The ionic contribution  to forces
     atom    1 type  1   force =    -8.76942794   -7.82114705   -0.00000000
     atom    2 type  1   force =   -11.27358615   -2.98915467    0.00000000
     atom    3 type  1   force =    -3.75190578  -11.04583212   -0.00000001
     atom    4 type  1   force =    -1.94853901   -7.73250320   -0.00000000
     atom    5 type  1   force =    -7.24498530   -3.87602857   -0.00000000
     atom    6 type  1   force =    -3.99025858   -1.63983975   -0.00000000
     atom    7 type  1   force =   -11.27420591    2.99947443   -0.00000000
     atom    8 type  1   force =    -7.24735100    3.88530533   -0.00000000
     atom    9 type  1   force =     0.00555422  -11.47716866   -0.00000000
     atom   10 type  1   force =     1.95666041   -7.73680884    0.00000000
     atom   11 type  1   force =    -1.90939334   -3.35780527    0.00000000
     atom   12 type  1   force =     0.00096758   -1.52837365    0.00000001
     atom   13 type  1   force =    -3.99183260    1.64618220    0.00000000
     atom   14 type  1   force =    -1.91314771    3.36131778    0.00000001
     atom   15 type  1   force =    -8.77461498    7.83250467   -0.00000000
     atom   16 type  1   force =    -3.76098043   11.05534333   -0.00000000
     atom   17 type  1   force =     3.76098023  -11.05534321   -0.00000000
     atom   18 type  1   force =     8.77461491   -7.83250457   -0.00000000
     atom   19 type  1   force =     1.91314762   -3.36131804    0.00000001
     atom   20 type  1   force =     3.99183257   -1.64618231    0.00000000
     atom   21 type  1   force =    -0.00096758    1.52837344    0.00000001
     atom   22 type  1   force =     1.90939342    3.35780501    0.00000000
     atom   23 type  1   force =    -1.95666092    7.73680853    0.00000000
     atom   24 type  1   force =    -0.00555422   11.47716307   -0.00000000
     atom   25 type  1   force =     7.24735095   -3.88530543   -0.00000000
     atom   26 type  1   force =    11.27420589   -2.99947445   -0.00000000
     atom   27 type  1   force =     3.99025861    1.63983964   -0.00000000
     atom   28 type  1   force =     7.24498534    3.87602847   -0.00000000
     atom   29 type  1   force =     1.94853952    7.73250289   -0.00000000
     atom   30 type  1   force =     3.75190598   11.04583224   -0.00000001
     atom   31 type  1   force =    11.27358616    2.98915465    0.00000000
     atom   32 type  1   force =     8.76942801    7.82114715   -0.00000000
     atom   33 type  2   force =    -3.48529274   -2.63983996   -0.00000000
     atom   34 type  2   force =    -4.03121880   -1.59362380   -0.00000000
     atom   35 type  2   force =    -0.82845064   -4.30342073    0.00000000
     atom   36 type  2   force =    -4.03130026    1.59645552    0.00000000
     atom   37 type  2   force =    -3.48636034    2.64348440   -0.00000000
     atom   38 type  2   force =    -0.83175648    4.30645517   -0.00000000
     atom   39 type  2   force =     0.83175648   -4.30645511   -0.00000000
     atom   40 type  2   force =     3.48636033   -2.64348439   -0.00000000
     atom   41 type  2   force =     4.03130026   -1.59645552    0.00000000
     atom   42 type  2   force =     0.82845064    4.30342079    0.00000000
     atom   43 type  2   force =     4.03121881    1.59362380   -0.00000000
     atom   44 type  2   force =     3.48529275    2.63983998   -0.00000000
     atom   45 type  2   force =     0.00201667   -4.51892531   -0.00000000
     atom   46 type  2   force =    -0.00201667    4.51893216   -0.00000000
     The local contribution  to forces
     atom    1 type  1   force =     8.77155146    7.78448598    0.00000000
     atom    2 type  1   force =    11.25077696    2.99575464   -0.00000000
     atom    3 type  1   force =     3.71734165   11.02714891    0.00000001
     atom    4 type  1   force =     1.96174304    7.70491238    0.00000000
     atom    5 type  1   force =     7.22252614    3.87349201    0.00000000
     atom    6 type  1   force =     3.97946532    1.63427384    0.00000000
     atom    7 type  1   force =    11.25139621   -3.00607303    0.00000000
     atom    8 type  1   force =     7.22489214   -3.88276720    0.00000000
     atom    9 type  1   force =    -0.00555367   11.45376559    0.00000000
     atom   10 type  1   force =    -1.96986238    7.70921728   -0.00000000
     atom   11 type  1   force =     1.90889660    3.35329047   -0.00000000
     atom   12 type  1   force =    -0.00096717    1.51736150   -0.00000001
     atom   13 type  1   force =     3.98103873   -1.64061567   -0.00000000
     atom   14 type  1   force =     1.91265123   -3.35680242   -0.00000001
     atom   15 type  1   force =     8.77673621   -7.79584111    0.00000000
     atom   16 type  1   force =     3.72641501  -11.03665667    0.00000000
     atom   17 type  1   force =    -3.72641480   11.03665652    0.00000000
     atom   18 type  1   force =    -8.77673616    7.79584101    0.00000000
     atom   19 type  1   force =    -1.91265116    3.35680274   -0.00000001
     atom   20 type  1   force =    -3.98103868    1.64061579   -0.00000000
     atom   21 type  1   force =     0.00096717   -1.51736127   -0.00000001
     atom   22 type  1   force =    -1.90889667   -3.35329015   -0.00000000
     atom   23 type  1   force =     1.96986297   -7.70921696   -0.00000000
     atom   24 type  1   force =     0.00555367  -11.45376035    0.00000000
     atom   25 type  1   force =    -7.22489209    3.88276730    0.00000000
     atom   26 type  1   force =   -11.25139619    3.00607306    0.00000000
     atom   27 type  1   force =    -3.97946537   -1.63427372    0.00000000
     atom   28 type  1   force =    -7.22252618   -3.87349192    0.00000000
     atom   29 type  1   force =    -1.96174364   -7.70491206    0.00000000
     atom   30 type  1   force =    -3.71734186  -11.02714906    0.00000001
     atom   31 type  1   force =   -11.25077698   -2.99575461   -0.00000000
     atom   32 type  1   force =    -8.77155152   -7.78448607    0.00000000
     atom   33 type  2   force =     3.41834611    2.60115070    0.00000000
     atom   34 type  2   force =     3.96424009    1.55525587    0.00000000
     atom   35 type  2   force =     0.82811431    4.22567611   -0.00000000
     atom   36 type  2   force =     3.96432148   -1.55808750   -0.00000000
     atom   37 type  2   force =     3.41941341   -2.60479497    0.00000000
     atom   38 type  2   force =     0.83141969   -4.22871029    0.00000000
     atom   39 type  2   force =    -0.83141970    4.22871023    0.00000000
     atom   40 type  2   force =    -3.41941340    2.60479496    0.00000000
     atom   41 type  2   force =    -3.96432148    1.55808750   -0.00000000
     atom   42 type  2   force =    -0.82811430   -4.22567617   -0.00000000
     atom   43 type  2   force =    -3.96424009   -1.55525586    0.00000000
     atom   44 type  2   force =    -3.41834612   -2.60115071    0.00000000
     atom   45 type  2   force =    -0.00201643    4.44181432    0.00000000
     atom   46 type  2   force =     0.00201643   -4.44181875    0.00000000
     The core correction contribution to forces
     atom    1 type  1   force =     0.00154804   -0.00037169    0.00000000
     atom    2 type  1   force =     0.00072425    0.00106570   -0.00000000
     atom    3 type  1   force =    -0.00113560    0.00112376    0.00000000
     atom    4 type  1   force =     0.00051945   -0.00025028    0.00000000
     atom    5 type  1   force =    -0.00012938    0.00024734   -0.00000000
     atom    6 type  1   force =    -0.00009349   -0.00006559    0.00000000
     atom    7 type  1   force =     0.00072430   -0.00106570    0.00000000
     atom    8 type  1   force =    -0.00012947   -0.00024731   -0.00000000
     atom    9 type  1   force =    -0.00000000    0.00100057   -0.00000000
     atom   10 type  1   force =    -0.00051948   -0.00025037   -0.00000000
     atom   11 type  1   force =     0.00008573    0.00012635   -0.00000000
     atom   12 type  1   force =    -0.00000006   -0.00028200   -0.00000000
     atom   13 type  1   force =    -0.00009344    0.00006565   -0.00000000
     atom   14 type  1   force =     0.00008563   -0.00012633   -0.00000000
     atom   15 type  1   force =     0.00154798    0.00037167    0.00000000
     atom   16 type  1   force =    -0.00113559   -0.00112369   -0.00000000
     atom   17 type  1   force =     0.00113559    0.00112369   -0.00000000
     atom   18 type  1   force =    -0.00154798   -0.00037167    0.00000000
     atom   19 type  1   force =    -0.00008563    0.00012634   -0.00000000
     atom   20 type  1   force =     0.00009344   -0.00006565   -0.00000000
     atom   21 type  1   force =     0.00000006    0.00028200   -0.00000000
     atom   22 type  1   force =    -0.00008573   -0.00012635   -0.00000000
     atom   23 type  1   force =     0.00051948    0.00025037   -0.00000000
     atom   24 type  1   force =     0.00000000   -0.00100054   -0.00000000
     atom   25 type  1   force =     0.00012947    0.00024731    0.00000000
     atom   26 type  1   force =    -0.00072430    0.00106570    0.00000000
     atom   27 type  1   force =     0.00009349    0.00006559    0.00000000
     atom   28 type  1   force =     0.00012938   -0.00024734   -0.00000000
     atom   29 type  1   force =    -0.00051945    0.00025028    0.00000000
     atom   30 type  1   force =     0.00113560   -0.00112376    0.00000000
     atom   31 type  1   force =    -0.00072425   -0.00106570   -0.00000000
     atom   32 type  1   force =    -0.00154804    0.00037169    0.00000000
     atom   33 type  2   force =     0.00000000    0.00000000    0.00000000
     atom   34 type  2   force =     0.00000000    0.00000000    0.00000000
     atom   35 type  2   force =     0.00000000    0.00000000    0.00000000
     atom   36 type  2   force =     0.00000000    0.00000000    0.00000000
     atom   37 type  2   force =     0.00000000    0.00000000    0.00000000
     atom   38 type  2   force =     0.00000000    0.00000000    0.00000000
     atom   39 type  2   force =     0.00000000    0.00000000    0.00000000
     atom   40 type  2   force =     0.00000000    0.00000000    0.00000000
     atom   41 type  2   force =     0.00000000    0.00000000    0.00000000
     atom   42 type  2   force =     0.00000000    0.00000000    0.00000000
     atom   43 type  2   force =     0.00000000    0.00000000    0.00000000
     atom   44 type  2   force =     0.00000000    0.00000000    0.00000000
     atom   45 type  2   force =     0.00000000    0.00000000    0.00000000
     atom   46 type  2   force =     0.00000000    0.00000000    0.00000000
     The Hubbard contrib.    to forces
     atom    1 type  1   force =     0.00000000    0.00000000    0.00000000
     atom    2 type  1   force =     0.00000000    0.00000000    0.00000000
     atom    3 type  1   force =     0.00000000    0.00000000    0.00000000
     atom    4 type  1   force =     0.00000000    0.00000000    0.00000000
     atom    5 type  1   force =     0.00000000    0.00000000    0.00000000
     atom    6 type  1   force =     0.00000000    0.00000000    0.00000000
     atom    7 type  1   force =     0.00000000    0.00000000    0.00000000
     atom    8 type  1   force =     0.00000000    0.00000000    0.00000000
     atom    9 type  1   force =     0.00000000    0.00000000    0.00000000
     atom   10 type  1   force =     0.00000000    0.00000000    0.00000000
     atom   11 type  1   force =     0.00000000    0.00000000    0.00000000
     atom   12 type  1   force =     0.00000000    0.00000000    0.00000000
     atom   13 type  1   force =     0.00000000    0.00000000    0.00000000
     atom   14 type  1   force =     0.00000000    0.00000000    0.00000000
     atom   15 type  1   force =     0.00000000    0.00000000    0.00000000
     atom   16 type  1   force =     0.00000000    0.00000000    0.00000000
     atom   17 type  1   force =     0.00000000    0.00000000    0.00000000
     atom   18 type  1   force =     0.00000000    0.00000000    0.00000000
     atom   19 type  1   force =     0.00000000    0.00000000    0.00000000
     atom   20 type  1   force =     0.00000000    0.00000000    0.00000000
     atom   21 type  1   force =     0.00000000    0.00000000    0.00000000
     atom   22 type  1   force =     0.00000000    0.00000000    0.00000000
     atom   23 type  1   force =     0.00000000    0.00000000    0.00000000
     atom   24 type  1   force =     0.00000000    0.00000000    0.00000000
     atom   25 type  1   force =     0.00000000    0.00000000    0.00000000
     atom   26 type  1   force =     0.00000000    0.00000000    0.00000000
     atom   27 type  1   force =     0.00000000    0.00000000    0.00000000
     atom   28 type  1   force =     0.00000000    0.00000000    0.00000000
     atom   29 type  1   force =     0.00000000    0.00000000    0.00000000
     atom   30 type  1   force =     0.00000000    0.00000000    0.00000000
     atom   31 type  1   force =     0.00000000    0.00000000    0.00000000
     atom   32 type  1   force =     0.00000000    0.00000000    0.00000000
     atom   33 type  2   force =     0.00000000    0.00000000    0.00000000
     atom   34 type  2   force =     0.00000000    0.00000000    0.00000000
     atom   35 type  2   force =     0.00000000    0.00000000    0.00000000
     atom   36 type  2   force =     0.00000000    0.00000000    0.00000000
     atom   37 type  2   force =     0.00000000    0.00000000    0.00000000
     atom   38 type  2   force =     0.00000000    0.00000000    0.00000000
     atom   39 type  2   force =     0.00000000    0.00000000    0.00000000
     atom   40 type  2   force =     0.00000000    0.00000000    0.00000000
     atom   41 type  2   force =     0.00000000    0.00000000    0.00000000
     atom   42 type  2   force =     0.00000000    0.00000000    0.00000000
     atom   43 type  2   force =     0.00000000    0.00000000    0.00000000
     atom   44 type  2   force =     0.00000000    0.00000000    0.00000000
     atom   45 type  2   force =     0.00000000    0.00000000    0.00000000
     atom   46 type  2   force =     0.00000000    0.00000000    0.00000000
     The SCF correction term to forces
     atom    1 type  1   force =    -0.00000178   -0.00000014    0.00000000
     atom    2 type  1   force =    -0.00000078   -0.00000017   -0.00000000
     atom    3 type  1   force =    -0.00000111   -0.00000063    0.00000000
     atom    4 type  1   force =     0.00000176   -0.00000277    0.00000000
     atom    5 type  1   force =    -0.00000159   -0.00000050    0.00000000
     atom    6 type  1   force =    -0.00000156   -0.00000002    0.00000000
     atom    7 type  1   force =    -0.00000077    0.00000018    0.00000000
     atom    8 type  1   force =    -0.00000160    0.00000053    0.00000000
     atom    9 type  1   force =     0.00000004   -0.00000312   -0.00000000
     atom   10 type  1   force =    -0.00000169   -0.00000283    0.00000000
     atom   11 type  1   force =    -0.00000420   -0.00000208   -0.00000000
     atom   12 type  1   force =    -0.00000000   -0.00000239    0.00000000
     atom   13 type  1   force =    -0.00000158    0.00000002   -0.00000000
     atom   14 type  1   force =    -0.00000419    0.00000212    0.00000000
     atom   15 type  1   force =    -0.00000173    0.00000018   -0.00000000
     atom   16 type  1   force =    -0.00000109    0.00000065    0.00000000
     atom   17 type  1   force =     0.00000109   -0.00000065   -0.00000000
     atom   18 type  1   force =     0.00000173   -0.00000018   -0.00000000
     atom   19 type  1   force =     0.00000419   -0.00000212    0.00000000
     atom   20 type  1   force =     0.00000158   -0.00000002   -0.00000000
     atom   21 type  1   force =     0.00000000    0.00000239   -0.00000000
     atom   22 type  1   force =     0.00000420    0.00000208    0.00000000
     atom   23 type  1   force =     0.00000169    0.00000283   -0.00000000
     atom   24 type  1   force =    -0.00000004    0.00000312   -0.00000000
     atom   25 type  1   force =     0.00000160   -0.00000053   -0.00000000
     atom   26 type  1   force =     0.00000077   -0.00000018   -0.00000000
     atom   27 type  1   force =     0.00000156    0.00000002    0.00000000
     atom   28 type  1   force =     0.00000159    0.00000050    0.00000000
     atom   29 type  1   force =    -0.00000176    0.00000277    0.00000000
     atom   30 type  1   force =     0.00000111    0.00000063    0.00000000
     atom   31 type  1   force =     0.00000078    0.00000017   -0.00000000
     atom   32 type  1   force =     0.00000178    0.00000014   -0.00000000
     atom   33 type  2   force =    -0.00000006    0.00000010   -0.00000000
     atom   34 type  2   force =     0.00000009   -0.00000002    0.00000000
     atom   35 type  2   force =    -0.00000003   -0.00000034   -0.00000000
     atom   36 type  2   force =     0.00000008    0.00000002    0.00000000
     atom   37 type  2   force =    -0.00000006   -0.00000010   -0.00000000
     atom   38 type  2   force =    -0.00000003    0.00000031   -0.00000000
     atom   39 type  2   force =     0.00000003   -0.00000031    0.00000000
     atom   40 type  2   force =     0.00000006    0.00000010   -0.00000000
     atom   41 type  2   force =    -0.00000008   -0.00000002    0.00000000
     atom   42 type  2   force =     0.00000003    0.00000034   -0.00000000
     atom   43 type  2   force =    -0.00000009    0.00000002   -0.00000000
     atom   44 type  2   force =     0.00000006   -0.00000010   -0.00000000
     atom   45 type  2   force =     0.00000000    0.00000073   -0.00000000
     atom   46 type  2   force =    -0.00000000   -0.00000073   -0.00000000

     Total force =     0.002974     Total SCF correction =     0.000014
     Energy error            =      1.0E-05 Ry
     Gradient error          =      9.3E-04 Ry/Bohr

     bfgs converged in  10 scf cycles and   8 bfgs steps
     (criteria: energy <  1.0E-04 Ry, force <  1.0E-03 Ry/Bohr)

     End of BFGS Geometry Optimization

     Final energy             =    -384.0421223137 Ry

     File /home/nihal/Desktop/OtptfGG/gqd_1.bfgs deleted, as requested
Begin final coordinates

ATOMIC_POSITIONS (angstrom)
C                2.3086646838        8.2079525698        4.9999999995
C                1.0677457717       10.3702777688        4.9999999999
C                3.4925361138        7.5206692838        4.9999999994
C                4.7503729418        8.2042401105        5.0000000000
C                2.2776159633        9.6368973114        4.9999999998
C                3.5124446442       10.3480112298        5.0000000001
C                1.0677461228       11.7516928067        4.9999999999
C                2.2776165747       12.4850727400        5.0000000001
C                5.9760634665        7.5234856677        5.0000000000
C                7.2017536083        8.2042408241        5.0000000004
C                4.7466938467        9.6369015848        5.0000000004
C                5.9760630347       10.3454699721        5.0000000009
C                3.5124450570       11.7739590638        5.0000000004
C                4.7466939514       12.4850693526        5.0000000008
C                2.3086648032       13.9140176030        5.0000000001
C                3.4925357167       14.6013013279        5.0000000001
C                8.4595905633        7.5206703021        5.0000000001
C                9.6434614768        8.2079540270        5.0000000001
C                7.2054323286        9.6369022874        5.0000000008
C                8.4396812230       10.3480125762        5.0000000004
C                5.9760632453       11.7765016679        5.0000000009
C                7.2054324333       12.4850700552        5.0000000004
C                4.7503726717       13.9177308059        5.0000000004
C                5.9760628135       14.5984859623        5.0000000000
C                9.6745097053        9.6368989000        5.0000000001
C               10.8843801572       10.3702788333        4.9999999999
C                8.4396816358       11.7739604102        5.0000000001
C                9.6745103167       12.4850743286        4.9999999998
C                7.2017533382       13.9177315195        5.0000000000
C                8.4595901662       14.6013023462        4.9999999994
C               10.8843805083       11.7516938712        4.9999999999
C                9.6434615962       13.9140190602        4.9999999995
H                1.3599987207        7.6682264325        4.9999999993
H                0.1229354909        9.8237914141        4.9999999995
H                3.4959466768        6.4296166760        4.9999999999
H                0.1229362445       12.2981798681        5.0000000000
H                1.3599995325       14.4537447102        4.9999999999
H                3.4959455503       15.6923538531        4.9999999999
H                8.4561807297        6.4296177769        4.9999999999
H               10.5921267475        7.6682269198        4.9999999999
H               11.8291900355        9.8237917719        5.0000000000
H                8.4561796032       15.6923549540        4.9999999999
H               11.8291907891       12.2981802259        4.9999999995
H               10.5921275593       14.4537451975        4.9999999993
H                5.9760637304        6.4312711526        4.9999999996
H                5.9760625496       15.6906988474        4.9999999996
End final coordinates



     Writing all to output data dir /home/nihal/Desktop/OtptfGG/gqd_1.save/ :
     XML data file, charge density, pseudopotentials, collected wavefunctions

     init_run     :     14.33s CPU     16.90s WALL (       1 calls)
     electrons    :   2140.90s CPU   2494.13s WALL (      10 calls)
     update_pot   :     25.03s CPU     35.53s WALL (       9 calls)
     forces       :     65.08s CPU     93.46s WALL (      10 calls)

     Called by init_run:
     wfcinit      :      6.73s CPU      7.12s WALL (       1 calls)
     wfcinit:atom :      0.04s CPU      0.09s WALL (       1 calls)
     wfcinit:wfcr :      6.33s CPU      6.56s WALL (       1 calls)
     potinit      :      2.96s CPU      4.03s WALL (       1 calls)
     hinit0       :      1.34s CPU      1.61s WALL (       1 calls)

     Called by electrons:
     c_bands      :   1246.54s CPU   1300.49s WALL (     118 calls)
     sum_band     :    452.80s CPU    552.49s WALL (     118 calls)
     v_of_rho     :    241.11s CPU    337.21s WALL (     123 calls)
     v_h          :     27.38s CPU     40.36s WALL (     123 calls)
     v_xc         :    231.14s CPU    322.23s WALL (     133 calls)
     newd         :    131.53s CPU    225.52s WALL (     123 calls)
     mix_rho      :     56.69s CPU     74.57s WALL (     118 calls)

     Called by c_bands:
     init_us_2    :     30.06s CPU     30.17s WALL (     247 calls)
     regterg      :   1219.93s CPU   1273.85s WALL (     118 calls)

     Called by sum_band:
     sum_band:wei :      0.00s CPU      0.00s WALL (     118 calls)
     sum_band:loo :    258.45s CPU    271.36s WALL (     118 calls)
     sum_band:buf :      0.00s CPU      0.00s WALL (     118 calls)
     sum_band:ini :     14.36s CPU     14.37s WALL (     118 calls)
     sum_band:cal :     14.48s CPU     14.49s WALL (     118 calls)
     sum_band:bec :      0.00s CPU      0.00s WALL (     118 calls)
     addusdens    :    160.74s CPU    241.69s WALL (     118 calls)
                                        0.00s GPU  (     118 calls)
     addusd:skk   :     20.48s CPU     51.67s WALL (     236 calls)
                                        0.00s GPU  (     236 calls)

     Called by *egterg:
     rdiaghg      :      1.18s CPU      1.18s WALL (     617 calls)
     regterg:over :     33.00s CPU     33.02s WALL (     513 calls)
     regterg:upda :     25.79s CPU     25.79s WALL (     513 calls)
     regterg:last :     51.77s CPU     51.78s WALL (     274 calls)
     h_psi        :   1041.24s CPU   1073.32s WALL (     632 calls)
     s_psi        :     48.41s CPU     48.42s WALL (     632 calls)
     g_psi        :      3.66s CPU      3.67s WALL (     513 calls)

     Called by h_psi:
     h_psi:calbec :     51.13s CPU     51.16s WALL (     632 calls)
     vloc_psi     :    934.50s CPU    966.50s WALL (     632 calls)
                                        0.00s GPU  (     632 calls)
     add_vuspsi   :     48.54s CPU     48.55s WALL (     632 calls)

     General routines
     calbec       :     70.57s CPU     70.61s WALL (     790 calls)
     fft          :    229.85s CPU    278.19s WALL (    1437 calls)
     ffts         :     12.53s CPU     14.67s WALL (     241 calls)
     fftw         :    750.16s CPU    791.02s WALL (   28378 calls)
     interpolate  :     31.63s CPU     39.75s WALL (     123 calls)

     Parallel routines

     PWSCF        :  37m39.94s CPU  44m23.91s WALL


   This run was terminated on:  15:13: 0   9Jul2026            

=------------------------------------------------------------------------------=
   JOB DONE.
=------------------------------------------------------------------------------=
