
     Program PWSCF v.7.5 starts on  9Jul2026 at 15:46:40 

     This program is part of the open-source Quantum ESPRESSO suite
     for quantum simulation of materials; please cite
         "P. Giannozzi et al., J. Phys.:Condens. Matter 21 395502 (2009);
         "P. Giannozzi et al., J. Phys.:Condens. Matter 29 465901 (2017);
         "P. Giannozzi et al., J. Chem. Phys. 152 154105 (2020);
          URL http://www.quantum-espresso.org", 
     in publications or presentations arising from this work. More details at
     http://www.quantum-espresso.org/quote

     Parallel version (MPI), running on     5 processors

     MPI processes distributed on     1 nodes
     25544 MiB available memory on the printing compute node when the environment starts

     Reading input from gqd_nscf.in

     Current dimensions of program PWSCF are:
     Max number of different atomic species (ntypx) = 10
     Max number of k-points (npk) =  40000
     Max angular momentum in pseudopotentials (lmaxx) =  4
     Message from routine iosys:
     wrong startingpot: use default (2)

     Atomic positions and unit cell read from directory:
     /home/nihal/Desktop/OtptfGG/gqd_1.save/


     gamma-point specific algorithms are used
     Message from routine setup:
     using ibrav=0 with symmetry is DISCOURAGED, use correct ibrav instead

     R & G space division:  proc/nbgrp/npool/nimage =       5
     Subspace diagonalization in iterative solution of the eigenvalue problem:
     a serial algorithm will be used


     Parallelization info
     --------------------
     sticks:   dense  smooth     PW     G-vecs:    dense   smooth      PW
     Min       14920    7460   1865              3277368  1158720  144854
     Max       14922    7462   1866              3277370  1158726  144858
     Sum       74605   37307   9329             16386845  5793619  724277

     Using Slab Decomposition



     bravais-lattice index     =            0
     lattice parameter (alat)  =      46.7221  a.u.
     unit-cell volume          =   92274.9062 (a.u.)^3
     number of atoms/cell      =           46
     number of atomic types    =            2
     number of electrons       =       142.00
     number of Kohn-Sham states=          120
     kinetic-energy cutoff     =      60.0000  Ry
     charge density cutoff     =     480.0000  Ry
     Exchange-correlation= PBE
                           (   1   4   3   4   0   0   0)

     celldm(1)=  46.722066  celldm(2)=   0.000000  celldm(3)=   0.000000
     celldm(4)=   0.000000  celldm(5)=   0.000000  celldm(6)=   0.000000

     crystal axes: (cart. coord. in units of alat)
               a(1) = (   1.000000   0.000000   0.000000 )  
               a(2) = (  -0.516583   0.894748   0.000000 )  
               a(3) = (   0.000000   0.000000   1.011153 )  

     reciprocal axes: (cart. coord. in units 2 pi/alat)
               b(1) = (  1.000000  0.577350 -0.000000 )  
               b(2) = (  0.000000  1.117633  0.000000 )  
               b(3) = (  0.000000 -0.000000  0.988970 )  


     PseudoPot. # 1 for C  read from file:
     /home/nihal/Desktop/pseudos/C.us.pbe.z_4.uspp.gbrv.v1.2.upf
     MD5 check sum: 9630a62af89b2189feb759fc7f027601
     Pseudo is Ultrasoft + core correction, Zval =  4.0
     
     Using radial grid of  721 points,  4 beta functions with: 
                l(1) =   0
                l(2) =   0
                l(3) =   1
                l(4) =   1
     Q(r) pseudized with 0 coefficients 


     PseudoPot. # 2 for H  read from file:
     /home/nihal/Desktop/pseudos/H.us.pbe.z_1.ld1.psl.v1.0.0-high.upf
     MD5 check sum: e76273ea4edb62c5e3246d46a5fe24e3
     Pseudo is Ultrasoft, Zval =  1.0
     Generated using &quot;atomic&quot; code by A. Dal Corso  v.6.3MaX
     Using radial grid of  929 points,  2 beta functions with: 
                l(1) =   0
                l(2) =   0
     Q(r) pseudized with 0 coefficients 


     atomic species   valence    mass     pseudopotential
     C                 4.00    12.01100     C ( 1.00)
     H                 1.00     1.00800     H ( 1.00)

      2 Sym. Ops. (no inversion) found


                                    s                        frac. trans.

      isym =  1     identity                                     

 cryst.   s( 1) = (     1          0          0      )
                  (     0          1          0      )
                  (     0          0          1      )

 cart.    s( 1) = (  1.0000000  0.0000000  0.0000000 )
                  (  0.0000000  1.0000000  0.0000000 )
                  (  0.0000000  0.0000000  1.0000000 )


      isym =  2     180 deg rotation - cart. axis [0,0,1]        

 cryst.   s( 2) = (    -1          0          0      )
                  (     0         -1          0      )
                  (     0          0          1      )

 cart.    s( 2) = ( -1.0000000 -0.0000000  0.0000000 )
                  (  0.0000000 -1.0000000  0.0000000 )
                  (  0.0000000  0.0000000  1.0000000 )


   Cartesian axes

     site n.     atom                  positions (alat units)
         1        C      tau(   1) = (   0.0933765   0.3319798   0.2022306  )
         2        C      tau(   2) = (   0.0431862   0.4194375   0.2022306  )
         3        C      tau(   3) = (   0.1412595   0.3041819   0.2022306  )
         4        C      tau(   4) = (   0.1921341   0.3318297   0.2022306  )
         5        C      tau(   5) = (   0.0921207   0.3897751   0.2022306  )
         6        C      tau(   6) = (   0.1420647   0.4185369   0.2022306  )
         7        C      tau(   7) = (   0.0431862   0.4753103   0.2022306  )
         8        C      tau(   8) = (   0.0921207   0.5049727   0.2022306  )
         9        C      tau(   9) = (   0.2417086   0.3042958   0.2022306  )
        10        C      tau(  10) = (   0.2912830   0.3318297   0.2022306  )
        11        C      tau(  11) = (   0.1919853   0.3897752   0.2022306  )
        12        C      tau(  12) = (   0.2417085   0.4184341   0.2022306  )
        13        C      tau(  13) = (   0.1420648   0.4762109   0.2022306  )
        14        C      tau(  14) = (   0.1919853   0.5049726   0.2022306  )
        15        C      tau(  15) = (   0.0933765   0.5627680   0.2022306  )
        16        C      tau(  16) = (   0.1412595   0.5905659   0.2022306  )
        17        C      tau(  17) = (   0.3421576   0.3041819   0.2022306  )
        18        C      tau(  18) = (   0.3900406   0.3319799   0.2022306  )
        19        C      tau(  19) = (   0.2914318   0.3897753   0.2022306  )
        20        C      tau(  20) = (   0.3413523   0.4185369   0.2022306  )
        21        C      tau(  21) = (   0.2417086   0.4763138   0.2022306  )
        22        C      tau(  22) = (   0.2914318   0.5049726   0.2022306  )
        23        C      tau(  23) = (   0.1921341   0.5629182   0.2022306  )
        24        C      tau(  24) = (   0.2417085   0.5904521   0.2022306  )
        25        C      tau(  25) = (   0.3912963   0.3897751   0.2022306  )
        26        C      tau(  26) = (   0.4402309   0.4194375   0.2022306  )
        27        C      tau(  27) = (   0.3413523   0.4762110   0.2022306  )
        28        C      tau(  28) = (   0.3912964   0.5049728   0.2022306  )
        29        C      tau(  29) = (   0.2912830   0.5629182   0.2022306  )
        30        C      tau(  30) = (   0.3421576   0.5905660   0.2022306  )
        31        C      tau(  31) = (   0.4402309   0.4753104   0.2022306  )
        32        C      tau(  32) = (   0.3900406   0.5627680   0.2022306  )
        33        H      tau(  33) = (   0.0550067   0.3101500   0.2022306  )
        34        H      tau(  34) = (   0.0049723   0.3973342   0.2022306  )
        35        H      tau(  35) = (   0.1413975   0.2600530   0.2022306  )
        36        H      tau(  36) = (   0.0049723   0.4974136   0.2022306  )
        37        H      tau(  37) = (   0.0550067   0.5845978   0.2022306  )
        38        H      tau(  38) = (   0.1413974   0.6346948   0.2022306  )
        39        H      tau(  39) = (   0.3420197   0.2600531   0.2022306  )
        40        H      tau(  40) = (   0.4284104   0.3101500   0.2022306  )
        41        H      tau(  41) = (   0.4784448   0.3973342   0.2022306  )
        42        H      tau(  42) = (   0.3420196   0.6346948   0.2022306  )
        43        H      tau(  43) = (   0.4784448   0.4974136   0.2022306  )
        44        H      tau(  44) = (   0.4284104   0.5845979   0.2022306  )
        45        H      tau(  45) = (   0.2417086   0.2601199   0.2022306  )
        46        H      tau(  46) = (   0.2417085   0.6346278   0.2022306  )

   Crystallographic axes

     site n.     atom                  positions (cryst. coord.)
         1        C      tau(   1) = (  0.2850452  0.3710317  0.2000000  )
         2        C      tau(   2) = (  0.2853485  0.4687773  0.2000000  )
         3        C      tau(   3) = (  0.3168790  0.3399638  0.2000000  )
         4        C      tau(   4) = (  0.3837161  0.3708639  0.2000000  )
         5        C      tau(   5) = (  0.3171575  0.4356256  0.2000000  )
         6        C      tau(   6) = (  0.3837071  0.4677707  0.2000000  )
         7        C      tau(   7) = (  0.3176067  0.5312227  0.2000000  )
         8        C      tau(   8) = (  0.3836669  0.5643743  0.2000000  )
         9        C      tau(   9) = (  0.4173938  0.3400911  0.2000000  )
        10        C      tau(  10) = (  0.4828649  0.3708639  0.2000000  )
        11        C      tau(  11) = (  0.4170222  0.4356258  0.2000000  )
        12        C      tau(  12) = (  0.4832916  0.4676559  0.2000000  )
        13        C      tau(  13) = (  0.4170053  0.5322292  0.2000000  )
        14        C      tau(  14) = (  0.4835314  0.5643742  0.2000000  )
        15        C      tau(  15) = (  0.4182908  0.6289682  0.2000000  )
        16        C      tau(  16) = (  0.4822229  0.6600362  0.2000000  )
        17        C      tau(  17) = (  0.5177771  0.3399638  0.2000000  )
        18        C      tau(  18) = (  0.5817092  0.3710318  0.2000000  )
        19        C      tau(  19) = (  0.5164686  0.4356258  0.2000000  )
        20        C      tau(  20) = (  0.5829947  0.4677708  0.2000000  )
        21        C      tau(  21) = (  0.5167084  0.5323441  0.2000000  )
        22        C      tau(  22) = (  0.5829778  0.5643742  0.2000000  )
        23        C      tau(  23) = (  0.5171351  0.6291361  0.2000000  )
        24        C      tau(  24) = (  0.5826062  0.6599089  0.2000000  )
        25        C      tau(  25) = (  0.6163331  0.4356257  0.2000000  )
        26        C      tau(  26) = (  0.6823933  0.4687773  0.2000000  )
        27        C      tau(  27) = (  0.6162929  0.5322293  0.2000000  )
        28        C      tau(  28) = (  0.6828425  0.5643744  0.2000000  )
        29        C      tau(  29) = (  0.6162839  0.6291361  0.2000000  )
        30        C      tau(  30) = (  0.6831210  0.6600362  0.2000000  )
        31        C      tau(  31) = (  0.7146515  0.5312227  0.2000000  )
        32        C      tau(  32) = (  0.7149548  0.6289683  0.2000000  )
        33        H      tau(  33) = (  0.2340718  0.3466340  0.2000000  )
        34        H      tau(  34) = (  0.2343733  0.4440740  0.2000000  )
        35        H      tau(  35) = (  0.2915392  0.2906439  0.2000000  )
        36        H      tau(  36) = (  0.2921542  0.5559260  0.2000000  )
        37        H      tau(  37) = (  0.3925244  0.6533660  0.2000000  )
        38        H      tau(  38) = (  0.5078386  0.7093560  0.2000000  )
        39        H      tau(  39) = (  0.4921614  0.2906440  0.2000000  )
        40        H      tau(  40) = (  0.6074756  0.3466340  0.2000000  )
        41        H      tau(  41) = (  0.7078458  0.4440740  0.2000000  )
        42        H      tau(  42) = (  0.7084608  0.7093561  0.2000000  )
        43        H      tau(  43) = (  0.7656267  0.5559260  0.2000000  )
        44        H      tau(  44) = (  0.7659282  0.6533660  0.2000000  )
        45        H      tau(  45) = (  0.3918889  0.2907187  0.2000000  )
        46        H      tau(  46) = (  0.6081111  0.7092812  0.2000000  )

     number of k points=     1
                       cart. coord. in units 2pi/alat
        k(    1) = (   0.0000000   0.0000000   0.0000000), wk =   2.0000000

                       cryst. coord.
        k(    1) = (   0.0000000   0.0000000   0.0000000), wk =   2.0000000

     Dense  grid:  8193423 G-vectors     FFT dimensions: ( 360, 360, 360)

     Smooth grid:  2896810 G-vectors     FFT dimensions: ( 240, 240, 240)

     Dynamical RAM for                 wfc:     132.60 MB

     Dynamical RAM for     wfc (w. buffer):     132.60 MB

     Dynamical RAM for           str. fact:      50.01 MB

     Dynamical RAM for           local pot:       0.00 MB

     Dynamical RAM for          nlocal pot:     313.83 MB

     Dynamical RAM for                qrad:       1.00 MB

     Dynamical RAM for          rho,v,vnew:     288.59 MB

     Dynamical RAM for           G-vectors:      98.19 MB

     Dynamical RAM for          h,s,v(r/c):       1.32 MB

     Dynamical RAM for          <psi|beta>:       0.26 MB

     Dynamical RAM for                 psi:     265.21 MB

     Dynamical RAM for                hpsi:     265.21 MB

     Dynamical RAM for                spsi:     265.21 MB

     Dynamical RAM for      wfcinit/wfcrot:     265.54 MB

     Dynamical RAM for           addusdens:    1875.33 MB

     Estimated static dynamical RAM per process >       1.28 GB

     Estimated max dynamical RAM per process >       3.12 GB

     Estimated total dynamical RAM >      15.58 GB

     The potential is recalculated from file :
     /home/nihal/Desktop/OtptfGG/gqd_1.save/charge-density


     negative rho (up, down):  1.103E-02 0.000E+00
     Starting wfcs are  142 atomic wfcs

     Band Structure Calculation
     Davidson diagonalization with overlap

     Computing kpt #:     1  of     1
     c_bands:  3 eigenvalues not converged
     total cpu time spent up to now is      326.5 secs

     ethr =  1.00E-13,  avg # of iterations =120.0

     total cpu time spent up to now is      326.5 secs

     End of band structure calculation

          k = 0.0000 0.0000 0.0000 (362139 PWs)   bands (ev):

   -22.5268 -21.9085 -21.6235 -20.9965 -20.8802 -20.2292 -19.9070 -19.7690
   -19.3446 -18.7163 -18.5290 -18.4814 -18.0622 -17.7628 -17.4596 -17.1032
   -15.7137 -15.6706 -15.6686 -15.5091 -15.4466 -15.0608 -14.0486 -13.9265
   -13.7739 -13.3029 -13.0192 -12.9650 -12.9279 -12.0724 -11.8572 -11.5939
   -11.5711 -11.5680 -11.3190 -10.9046 -10.5823 -10.5779 -10.4064 -10.3067
   -10.2883 -10.1289  -9.9721  -9.9470  -9.8739  -9.7244  -9.5753  -9.5017
    -9.2934  -9.2475  -8.9727  -8.8563  -8.7325  -8.6484  -8.6069  -8.3822
    -8.2113  -8.0980  -7.9350  -7.6446  -7.5410  -7.3090  -7.2304  -7.1274
    -6.4841  -6.3762  -6.2655  -5.9147  -5.6100  -5.1634  -4.5897  -2.6642
    -2.0788  -1.7206  -1.5275  -1.0993  -1.0321  -0.8828  -0.3838  -0.2099
    -0.1974  -0.0777  -0.0091   0.0001   0.0837   0.1089   0.1110   0.1941
     0.3496   0.3687   0.4034   0.4087   0.4101   0.4199   0.4301   0.4335
     0.4488   0.4501   0.4838   0.4947   0.4959   0.5120   0.5404   0.6519
     0.6605   0.6952   0.7140   0.7143   0.7625   0.8029   0.8736   0.8810
     0.8817   0.9106   0.9407   0.9563   1.0253   1.0294   1.0476   1.0486

     occupation numbers 
     1.0000   1.0000   1.0000   1.0000   1.0000   1.0000   1.0000   1.0000
     1.0000   1.0000   1.0000   1.0000   1.0000   1.0000   1.0000   1.0000
     1.0000   1.0000   1.0000   1.0000   1.0000   1.0000   1.0000   1.0000
     1.0000   1.0000   1.0000   1.0000   1.0000   1.0000   1.0000   1.0000
     1.0000   1.0000   1.0000   1.0000   1.0000   1.0000   1.0000   1.0000
     1.0000   1.0000   1.0000   1.0000   1.0000   1.0000   1.0000   1.0000
     1.0000   1.0000   1.0000   1.0000   1.0000   1.0000   1.0000   1.0000
     1.0000   1.0000   1.0000   1.0000   1.0000   1.0000   1.0000   1.0000
     1.0000   1.0000   1.0000   1.0000   1.0000   1.0000   1.0000   0.0000
     0.0000   0.0000   0.0000   0.0000   0.0000   0.0000   0.0000   0.0000
     0.0000   0.0000   0.0000   0.0000   0.0000   0.0000   0.0000   0.0000
     0.0000   0.0000   0.0000   0.0000   0.0000   0.0000   0.0000   0.0000
     0.0000   0.0000   0.0000   0.0000   0.0000   0.0000   0.0000   0.0000
     0.0000   0.0000   0.0000   0.0000   0.0000   0.0000   0.0000   0.0000
     0.0000   0.0000   0.0000   0.0000   0.0000   0.0000   0.0000   0.0000

     highest occupied, lowest unoccupied level (ev):    -4.5897   -2.6642

     Writing all to output data dir /home/nihal/Desktop/OtptfGG/gqd_1.save/ :
     XML data file, pseudopotentials, collected wavefunctions

     init_run     :      7.67s CPU      9.86s WALL (       1 calls)
     electrons    :    305.12s CPU    316.63s WALL (       1 calls)

     Called by init_run:
     wfcinit      :      0.00s CPU      0.00s WALL (       1 calls)
     wfcinit:atom :      0.04s CPU      0.09s WALL (       1 calls)
     wfcinit:wfcr :      6.36s CPU      6.61s WALL (       1 calls)
     potinit      :      3.05s CPU      4.13s WALL (       1 calls)
     hinit0       :      1.34s CPU      1.60s WALL (       1 calls)

     Called by electrons:
     c_bands      :    305.12s CPU    316.60s WALL (       1 calls)
     v_of_rho     :      1.98s CPU      2.80s WALL (       1 calls)
     v_h          :      0.23s CPU      0.34s WALL (       1 calls)
     v_xc         :      1.75s CPU      2.46s WALL (       1 calls)
     newd         :      1.08s CPU      1.84s WALL (       1 calls)

     Called by c_bands:
     init_us_2    :      0.08s CPU      0.19s WALL (       1 calls)
     regterg      :    298.53s CPU    309.56s WALL (       6 calls)

     Called by sum_band:

     Called by *egterg:
     rdiaghg      :      0.74s CPU      0.74s WALL (     121 calls)
     regterg:over :     14.05s CPU     14.07s WALL (     120 calls)
     regterg:upda :     11.02s CPU     11.02s WALL (     120 calls)
     regterg:last :     24.10s CPU     24.10s WALL (      47 calls)
     h_psi        :    238.38s CPU    247.78s WALL (     127 calls)
     s_psi        :     10.51s CPU     10.51s WALL (     127 calls)
     g_psi        :      1.12s CPU      1.12s WALL (     120 calls)

     Called by h_psi:
     h_psi:calbec :     10.85s CPU     10.86s WALL (     127 calls)
     vloc_psi     :    215.31s CPU    224.66s WALL (     127 calls)
                                        0.00s GPU  (     127 calls)
     add_vuspsi   :     10.45s CPU     10.46s WALL (     127 calls)

     General routines
     calbec       :     10.85s CPU     10.86s WALL (     127 calls)
     fft          :      2.51s CPU      2.85s WALL (      11 calls)
     ffts         :      0.62s CPU      0.63s WALL (       1 calls)
     fftw         :    146.76s CPU    152.37s WALL (    5744 calls)
     interpolate  :      0.82s CPU      0.90s WALL (       1 calls)
     davcio       :      0.00s CPU      0.06s WALL (       2 calls)

     Parallel routines

     PWSCF        :   5m12.89s CPU   5m26.83s WALL


   This run was terminated on:  15:52: 7   9Jul2026            

=------------------------------------------------------------------------------=
   JOB DONE.
=------------------------------------------------------------------------------=
